# total energy = -9476.036469031818 eV 

 CRYSTAL
 PRIMVEC
        3.822194351802100        0.000000000000000        0.000000000000000
       -1.911097175901050        3.310115863519414        0.000000000000000
        0.000000000000000        0.000000000000000       20.000094431321056
 PRIMCOORD
12 1
Mo          0.961645752380520        0.536329929225435        9.962491480618027       -4.013697715766209        6.006541639920025      -11.772640546793353
Mo         -0.000076061667601        2.204241518370817       10.183195684635264       11.979521883956311        0.968888520246889      -25.325338111088978
Mo          2.865284298223463        0.562878508973618       10.161340377331660        3.318467253809692      -10.819810886953432      -19.725347197906604
Mo          1.936358058372110        2.197276333603528       10.105953341199132      -13.656342121448851        5.811303291512397      -15.025036333387737
S           0.944859057006840        1.627538132426732        8.274943367990261       -0.202680666942027        1.988716273295278      -22.654959864609932
S           0.952693790989164        1.645257443222251       11.559846508687448        5.024656444498834       -6.174994737851711       42.212612440356168
S          -0.000007262169268        3.279475624717628        8.490377530435236        3.495053526003751       -1.814649940435001      -29.777178483575472
S           0.013855454525283        3.284316816083620       11.566571659649442       -6.173601713536801        5.730568302198911       44.457796368528214
S           2.832612180904259        1.685989039551665        8.586471700853327        2.118766843038788       -1.561069635697840      -31.996474219565179
S           2.899498288744184        1.647843922140116       11.486329275866581       -5.965687306662271        1.553706764286606       56.821967541382200
S           1.865377998161969        3.328544955806063        8.396241852403007       -2.290643109248197       -0.958684064352749      -25.952904306710433
S           1.886709664839377        3.314141780830167       11.604237856108712        6.366186682296982       -0.730516297500666       38.737502713371100
