# total energy = -9687.070219951722 eV 

 CRYSTAL
 PRIMVEC
        5.446609753057400        0.000000000000000        0.000000000000000
       -2.723304876528700        4.716900211391535        0.000000000000000
        0.000000000000000        0.000000000000000       20.000032712373070
 PRIMCOORD
12 1
Mo          1.409869640425241        0.763019917593614        9.925239306225835       -1.593929634325937        1.675567338362502        1.512058731128496
Mo          0.022973255277421        3.122293006023068       10.156369459062677        1.012792697436621       -0.910647351206290       -4.456370658279901
Mo          4.075843502693259        0.808282878624447        9.837076123475045       -0.570702881380333       -4.337069104323291        9.772056827336524
Mo          2.749303723523945        3.103945556408919       10.071195375744365       -1.644583731659509       -0.503550779023725        0.202976343937625
S           1.403345691263029        2.330220872006646        8.284778182668328       -0.675406990619520        0.943258466937223       -1.028336051429524
S           1.421411551152945        2.335612471001198       11.733575290931102       -0.489723894267873       -0.862503680120554        1.817382510095181
S           0.020993412632184        4.731582637302852        8.238751606950116       -0.543597271307422       -1.819802690581753       -1.801087622312600
S          -0.051350092090850        4.742387077069992       11.542211380562303        1.656945858290216        0.944663832552818        5.048551516620421
S           4.056363158250474        2.320758476882660        8.524568989673508        1.691884851863008        4.900859314656991       -8.324864229723023
S           4.127862438461785        2.326952361493837       11.773412883986913       -0.404722671573565       -0.611392149741415        1.283751610422836
S           2.710366999721287        4.672233109467686        8.485950892541405        1.534024446576203       -1.321995758585544       -6.816782996961389
S           2.721298345495674        4.669313726640048       11.591060934115527        0.027018963857680        1.902612818183470        2.790664019165353
