# total energy = -9696.666023690012 eV 

 CRYSTAL
 PRIMVEC
        7.039168683922899        0.000000000000000        0.000000000000000
       -3.519584341961449        6.096096059494329        0.000000000000000
        0.000000000000000        0.000000000000000       19.999981709846463
 PRIMCOORD
12 1
Mo          1.707348956451762        0.995195556782414       10.004487475878523        0.419513206224634        0.457257788819998       -1.142389724379928
Mo          0.049910521636487        4.029068812550763        9.892690694923591       -0.633888026897749        0.538907834157249       -0.079735858178797
Mo          5.288143093621131        1.031122769828288       10.183715269324226        0.669538702143423        0.411999153879999       -2.852895027873498
Mo          3.527296455171555        4.034855713125816        9.879276151162639       -0.016210555561229        0.319720420437533        0.737589662566646
S           1.731308878818099        3.077645622312455        8.362907584191257        0.298238072600020       -0.462226447898187        1.126650966459500
S           1.735469731427166        3.064892760407792       11.429926173541592        0.246778705396700       -0.171454090881783       -0.692528231327189
S           0.047428510758536        6.127598451105489        8.391908255252151       -0.152176979210563       -0.051836291095099        1.581209095754479
S           0.044432640566658        6.114519675690760       11.362852750819966       -0.925926652786603       -0.721991544051950        0.924991285038792
S           5.328152320586812        3.032748396612658        8.352248171053192       -0.171569790575712       -0.123831325529160        2.016393954077062
S           5.289032844542779        3.057578360228328       11.618468898906732        0.005739990371052        0.168987116296777       -1.825825759537286
S           3.487520224689312        6.102502406913566        8.446936252521850       -0.009110708120861        0.014657351447835        1.579923286489278
S           3.496197407925984        6.122474640220461       11.625415854480895        0.269074036416890       -0.380189965583212       -1.373383649089059
