# total energy = -9697.43574891491 eV 

 CRYSTAL
 PRIMVEC
        6.784369838529400        0.000000000000000        0.000000000000000
       -3.392184919264700        5.875433889412424        0.000000000000000
        0.000000000000000        0.000000000000000       20.000016987341937
 PRIMCOORD
12 1
Mo          1.658042999829942        1.026784523834135       10.005894612942877        0.636963324762392       -0.613616412079600       -0.067700261795402
Mo          0.012646743816003        3.948566340663608       10.053206772885829        0.160067441226116        0.047366940473823       -0.164766391462234
Mo          5.085104329123570        0.987437214081616       10.077934444073302       -0.112806944470707       -0.126808407209178       -1.191965757676510
Mo          3.347079714830221        3.902224345607566        9.944852245320709        0.952536811059066        0.697219725360810        0.611301389759288
S           1.738715941579895        2.960519211733509        8.437059292119757       -0.733673613592783       -0.068960360017509        1.268545585315345
S           1.710898668367956        2.896081267007157       11.753430235312859       -0.100522722300580        0.321096989684862       -2.649269994318576
S          -0.074015439627404        5.899636450374393        8.333652605477877        0.427026230127545        0.023931067581920        2.785969696916992
S          -0.009352253822413        5.834432550293270       11.830389413013201        0.120548796657168        0.394667596839810       -3.059461404758536
S           5.119201215058051        2.965436522992475        8.419105814216058       -0.087670286078043       -0.255779627363543        1.666519108076363
S           5.104059858452421        2.992669661961316       11.547504257603977       -0.358451278646037       -0.319445312276412       -0.925742047497178
S           3.438317955729715        5.885105687054231        8.138212549791424       -0.355667801120527        0.035082204082833        3.384760350216482
S           3.442404860120446        5.885961196090869       11.575586799676600       -0.548349957623610       -0.134754147967386       -1.658189758555172
