# total energy = -38803.34585054282 eV 

 CRYSTAL
 PRIMVEC
       12.740577282373799        0.000000000000000        0.000000000000000
       -6.370288641186900       11.033658440967770        0.000000000000000
        0.000000000000000        0.000000000000000       19.999979849788435
 PRIMCOORD
48 1
Mo          1.598225154436914        0.986851990791740        9.999991198951946        0.227866690537435       -0.637237661592220        0.000000000000000
S           1.571166716404609        2.773896322726619        8.348465839454221        0.190065286536831       -0.109306900174128        0.722289277930995
S           1.571166716404609        2.773897596784347       11.651520380622856        0.190065286536831       -0.109306900174128       -0.722289277930995
Mo          0.052244011204102        3.671895527551084        9.999991198951946       -0.995615663765436       -0.182046526416232        0.000000000000000
S          -0.011541688960102        5.502966198342934        8.432361266800925        0.088096060951703        0.110310402186143        0.033179844004204
S          -0.011541688960102        5.502964924285205       11.567619857045241        0.088096060951703        0.110310402186143       -0.033179844004204
Mo         -1.628808910203252        6.368738112931634        9.999991198951946        0.289406586407176        0.458127850518347        0.000000000000000
S          -1.570881327473484        8.263395730882083        8.532731534631466       -0.270700259892675        0.117395594331946       -0.904204163806579
S          -1.570881327473484        8.263394456824356       11.467250863272428       -0.270700259892675        0.117395594331946        0.904204163806579
Mo         -3.225149733260103        9.230322732861920        9.999991198951946        1.061973809111257        0.027932477218860        0.000000000000000
S          -3.189400947463491       11.050180421587552        8.400258834222527        0.045900896796523        0.124857967479960        0.599741447673158
S          -3.189400947463491       11.050180421587552       11.599729933970007        0.045900896796523        0.124857967479960       -0.599741447673158
Mo          4.829960492094277        0.913480280280278        9.999991198951946       -1.089552245266693       -0.227473054467644        0.000000000000000
S           4.766173517872343        2.744552225129856        8.432361266800925        0.104146436714447        0.088713640206855        0.033619245730704
S           4.766173517872343        2.744552225129856       11.567619857045241        0.104146436714447        0.088713640206855       -0.033619245730704
Mo          3.148907570686923        3.610324139718557        9.999991198951946        0.330443982291769        0.396958707890042        0.000000000000000
S           3.206835153416691        5.504981757669005        8.532731534631466       -0.256537588913996        0.120893581745078       -0.851386739306958
S           3.206833879358963        5.504980483611277       11.467250863272428       -0.256537588913996        0.120893581745078        0.851386739306958
Mo          1.552566747630071        6.471908759648842        9.999991198951946        0.220597407323068       -0.254084241181831        0.000000000000000
S           1.588315533426684        8.291766448374474        8.400258834222527        0.021984741619597       -0.162034593133346        0.248916835740514
S           1.588315533426684        8.291766448374474       11.599729933970007        0.021984741619597       -0.162034593133346       -0.248916835740514
Mo          0.050299799110812        9.241962524267096        9.999991198951946       -0.402689699396010       -0.332840251508262        0.000000000000000
S          -0.024932035683877       11.034430519951082        8.364002973450077        0.299800532688929       -0.041861949036664        0.493420885154563
S          -0.024930761626149       11.034430519951082       11.635980698511544        0.299800532688929       -0.041861949036664       -0.493420885154563
Mo          7.926624051577098        0.851908892447750        9.999991198951946        0.030110202569042        0.653613796270984        0.000000000000000
S           7.984551634306866        2.746566510398199        8.532731534631466       -0.242600918004125        0.100254041900232       -0.900659896515876
S           7.984551634306866        2.746565236340471       11.467250863272428       -0.242600918004125        0.100254041900232        0.900659896515876
Mo          6.330283228520246        3.713493512378035        9.999991198951946        0.244126868411838       -0.263708398833307        0.000000000000000
S           6.366032014316859        5.533351201103667        8.400258834222527        0.028163876606719       -0.156191758589913        0.253297740373542
S           6.366032014316859        5.533351201103667       11.599729933970007        0.028163876606719       -0.156191758589913       -0.253297740373542
Mo          4.828016280000987        6.483548551054018        9.999991198951946       -0.271049930078772       -0.320691012314385        0.000000000000000
S           4.752784445206298        8.276020368911187        8.364002973450077        0.217962282516219       -0.044909736085194        0.525256298715307
S           4.752784445206298        8.276020368911187       11.635980698511544        0.217962282516219       -0.044909736085194       -0.525256298715307
Mo          3.195507506154933        9.133159268333353        9.999991198951946       -0.077966938413833        0.401926595636938        0.000000000000000
S           3.196166194000432       11.013681215789008        8.514023270950027       -0.282404440930570       -0.147382383894130       -1.153117142890629
S           3.196166194000432       11.013681215789008       11.485960401011594       -0.282404440930570       -0.147382383894130        1.153117142890629
Mo         11.108000983468148        0.955079539164957        9.999991198951946        1.281666444827798       -0.041243084229357        0.000000000000000
S          11.143751043322490        2.774937227890589        8.400258834222527        0.218462619414856        0.036628466214592        0.450183395312294
S          11.143751043322490        2.774937227890589       11.599729933970007        0.218462619414856        0.036628466214592       -0.450183395312294
Mo          9.605731486833433        3.725133303783212        9.999991198951946       -0.391934770069198       -0.360805124641423        0.000000000000000
S           9.530500926096472        5.517605121640381        8.364002973450077        0.197740032900812       -0.123275452777437        0.518882016911091
S           9.530502200154201        5.517605121640381       11.635980698511544        0.197740032900812       -0.123275452777437       -0.518882016911091
Mo          7.973222712987379        6.374744021062546        9.999991198951946       -0.083497126673226        0.424641016659584        0.000000000000000
S           7.973882674890605        8.255271064749113        8.514023270950027       -0.454589496767555        0.024926342060144       -0.987585333675444
S           7.973882674890605        8.255269790691386       11.485960401011594       -0.454589496767555        0.024926342060144        0.987585333675444
Mo          6.309674070708279        9.174178830951684        9.999991198951946        0.522741758700575        0.116833550929881        0.000000000000000
S           6.384584842955451       11.039470692323988        8.477673129905687       -0.353804264716972        0.131030417595876       -0.269369713412487
S           6.384584842955451       11.039470692323988       11.522310542055935       -0.353804264716972        0.131030417595876        0.269369713412487
