# total energy = -9652.909572849847 eV 

 CRYSTAL
 PRIMVEC
        4.554734417592800        0.000000000000000        0.000000000000000
       -2.277367208796400        3.944513873995805        0.000000000000000
        0.000000000000000        0.000000000000000       19.999888929728577
 PRIMCOORD
12 1
Mo          1.161483693945786        0.658634637615356       10.014012217586467       -1.099841033382186       -0.365076500230864        4.532451434572254
Mo         -0.021451432686537        2.605002008710219        9.956432631499585        1.396951419632041        0.393513171004825        3.004533360731213
Mo          3.389033950523206        0.648587348963588        9.917051942251636        1.469031557618748       -1.917751737468481        2.108505308628976
Mo          2.292135479672003        2.593309549986817        9.825188414730089       -1.711928666839332        2.349505714200412        0.398692146415535
S           1.093256505210896        1.980204037609718        8.043404094447732       -0.434531026496666       -0.771656794668073       -5.301661823489797
S           1.128264649417956        1.993717934626716       12.196115334145146       -0.131221450646075       -0.250062262710415        2.765862632774653
S           0.019709246771808        3.965086698413188        7.842307559703151       -0.727177204333865        0.074565110301878       -4.219109666816263
S           0.044632298031434        3.942274311082674       12.208395353608418       -0.589783817792735       -0.002875008838929        2.911215901147693
S           3.372345859090589        1.971351455795685        8.065335596141884        0.868371197265359       -0.135730139163288       -5.717733092375248
S           3.415712851900814        1.956202409122771       12.098527871881013        0.053659461160995        0.206653280210700        2.535612271431841
S           2.231306090578168        3.956731949070997        8.068792639564837        0.936053204220164        0.747612084275670       -4.497421423906904
S           2.266630333353809        3.904782925671143       11.866213187438248       -0.029583640406448       -0.328696916913436        1.479052950886048
