# total energy = -9595.332591331891 eV 

 CRYSTAL
 PRIMVEC
        4.363648512978900        0.000000000000000        0.000000000000000
       -2.181824256489450        3.779028703452552        0.000000000000000
        0.000000000000000        0.000000000000000       19.999988775209427
 PRIMCOORD
12 1
Mo          1.126061317016770        0.625604069089948       10.135672001724211        0.133671970163500       -6.040687190702892      -10.681271559221539
Mo          0.050328140124442        2.489413476520820        9.990427960969710       -9.603348932967764        6.286264419055743       -0.364051915163512
Mo          3.220872676698015        0.655563570685508        9.991427672844033        0.224187954491343       -0.470316684718591        2.140576749565337
Mo          2.133168702840032        2.554029510971308        9.859112686268634        6.268252547815250       -7.777030035623907       10.637441686946351
S           1.033529277569350        1.912194851237335        8.385884729937480       -0.431314575005430       -3.571562648274074      -21.475595346264914
S           1.074762265098190        1.856134186061392       11.459640924304072        1.431573138933036        5.927120999129578       29.921941169288608
S          -0.015750152942746        3.762699494352133        8.250026024404692        0.025264442276849        0.839841966736255      -14.522399067725193
S          -0.012480907476822        3.800316762723119       11.655196523318669        3.507028958546303       -2.773447904708663       19.711422354076557
S           3.285547184038578        1.874981220353800        8.453598518467333        1.415765475417112       -0.970725831386487      -22.626167610109956
S           3.248823154518199        1.920875020859353       11.609537050738263        0.260150247579333       -0.000294648553873       16.646248212652651
S           2.215524277590335        3.750317641696556        8.573856744201368        1.254948043063903        9.937439769612187      -30.417275213159900
S           2.214346965221533        3.743456240774748       11.547343713942178       -4.486179527423864       -1.386602210565274       21.029130539115510
