# total energy = -9664.828743278027 eV 

 CRYSTAL
 PRIMVEC
        5.828834480010100        0.000000000000000        0.000000000000000
       -2.914417240005050        5.047916380550747        0.000000000000000
        0.000000000000000        0.000000000000000       20.000054246341612
 PRIMCOORD
12 1
Mo          1.429771130338221        0.855953268603971        9.887957288390549        3.453743078841483        2.388882948032335       -3.129874438710936
Mo          0.034036896062571        3.331540293063532        9.871998522467729       -2.281285318003190        0.107875566405007        3.474352022545045
Mo          4.321251906664431        0.839084038735374       10.010222920443240        3.915627569866501        1.326960046786407       -6.557391225153370
Mo          2.976136436780084        3.324307292357288        9.951508487842650       -9.389653912274092        3.510304031215796       -0.506657187250514
S           1.458386044567487        2.559438888638643        8.721437889857160        2.707058906111127       -0.675523718755174      -17.784624700315817
S           1.463131298717663        2.485619031483107       11.134073501932612       -0.195920719491381        1.040228951523740       16.473077652533821
S          -0.022513290295591        5.012838454650046        8.738708726421429        1.275554672773586        1.686323296131038      -17.362914228348245
S          -0.020393926078659        5.072433041257117       11.030321413955328       -3.253979329738631       -3.635939500638962       20.077908847910773
S           4.299311007914778        2.548317472450784        8.787468092613610        3.744042352664932       -3.966071350867553      -20.051069347133900
S           4.339281657477999        2.559934922452892       11.106815540370294        4.721638688987376       -0.495860606033887       19.976351770346469
S           2.951869833072907        5.023420703648505        8.727392627161938       -3.835976815240350       -0.019458374525042      -16.208430543517100
S           2.944001489408341        5.067637659130413       10.982539543305446       -0.860848917386933       -1.267721289273706       21.599271377093778
