# total energy = -9678.342771184469 eV 

 CRYSTAL
 PRIMVEC
        8.376928769394899        0.000000000000000        0.000000000000000
       -4.188464384697450        7.254629737515218        0.000000000000000
        0.000000000000000        0.000000000000000       19.999984452360476
 PRIMCOORD
12 1
Mo          2.085751389662589        1.195489933923639        9.998166055708509       -0.105566200514176        0.010591664203157       -0.249617718775295
Mo          0.017023594645164        4.819676019785878       10.176587936953606       -0.027190970735988        0.036007030302976       -0.369380014624175
Mo          6.304296487878060        1.148664577488475       10.163156369364758       -0.045901411017385       -0.113814303139186       -0.197437156813148
Mo          4.152281916263802        4.821074129197491        9.905508008897357        0.216608081876383       -0.002259743577656        0.125804648086733
S           2.091164561033372        3.580050561254929        8.234019202281900        0.296135937716539       -0.017570155520115        2.760023397777253
S           2.138516826288131        3.607907200184675       11.623389084730601       -0.346858169314314        0.096722630131077       -2.416202731094231
S           0.084644676750351        7.181158208357486        8.225105312378385       -0.118560561694600        0.042978579638298        2.723112624309473
S           0.035033153806486        7.300148293062356       11.527277230187824        0.214039805781582       -0.170597913146705       -1.814615744747684
S           6.249646242279404        3.616844545488742        8.536262980746052       -0.291276036350643        0.187126000090163        2.066787341433647
S           6.280734700328383        3.657617570888018       11.767695085869457        0.373157223965322       -0.127244466500076       -2.246209541681130
S           4.154628294012110        7.279102934915004        8.532397865811854        0.103374076979861       -0.163500893921078        1.971431253243091
S           4.251835850837923        7.182976001900445       11.735231136116544       -0.267962033803013        0.221561314328715       -2.353696614224965
