# total energy = -9689.639279969973 eV 

 CRYSTAL
 PRIMVEC
        7.293967529316399        0.000000000000000        0.000000000000000
       -3.646983764658200        6.316758229576235        0.000000000000000
        0.000000000000000        0.000000000000000       19.999949555872629
 PRIMCOORD
12 1
Mo          1.836346041306014        1.105265840668608       10.140722822365769       -0.133336955271966       -0.001597684217949       -0.343849977272150
Mo         -0.066946222174325        4.204420856705688        9.935732429525105        0.462699788201573        0.011060890739648        0.614068926438079
Mo          5.505600477021476        1.088559737439462        9.952395498345830       -0.166355076815100       -0.042979093859160        0.103511116839560
Mo          3.725539794948937        4.180276365390145       10.096761350669825       -0.344036639445023       -0.008122375624273        0.260166188426052
S           1.879968343511844        3.104264440291366        8.397621403161027       -0.146442902379424        0.212444435557512        2.981711981769291
S           1.848933970468108        3.169397382137903       11.935058528289929        0.119181997606216       -0.179804780568743       -3.599496668155519
S          -0.001809633344023        6.362635826542128        8.146265446926762        0.037866710050067       -0.168962433695406        3.500696842852763
S          -0.049435594326695        6.375357964706763       11.666954163814847        0.084679063324322       -0.070637748469053       -2.880355964561989
S           5.570596292278460        3.105392817068152        8.310239672159817       -0.275898775696137        0.245147596822726        2.950441954046215
S           5.474931531750959        3.159638782980430       11.846161840232881       -0.045826591881977        0.097698621326979       -3.664015959699156
S           3.563647997445501        6.375839366563698        8.176778301292151        0.155850315937606       -0.051059303372756        3.639134354853998
S           3.637382715199360        6.353268184044228       11.857830000089528        0.251619066369843       -0.043188638860387       -3.562012538426712
