# total energy = -9699.115349211459 eV 

 CRYSTAL
 PRIMVEC
        6.529570993135899        0.000000000000000        0.000000000000000
       -3.264785496567950        5.654771719330517        0.000000000000000
        0.000000000000000        0.000000000000000       20.000062892833274
 PRIMCOORD
12 1
Mo          1.628968641255174        0.932138701481605       10.085856780507514       -0.199978179202268        0.514481828995742       -3.636235177634559
Mo          0.039887190325769        3.754130482549434       10.039400188805551       -1.117741832916508       -0.219662810906550       -2.713015897685903
Mo          4.944536570308040        0.925158590089943       10.011562015833416       -1.149518882409425        1.001699410782673       -1.618345355070205
Mo          3.318909110530053        3.772812891074995        9.918518241009625       -0.517204885569977       -0.106181465775450        0.384785557426086
S           1.687795505203634        2.831799196699519        8.223636845364242       -0.238855076135554       -0.081830793970212        2.793810279508939
S           1.629060055249078        2.869769957938803       11.521648716887862        0.787995391223917       -0.222210003946013        0.001470414554627
S          -0.039804917731256        5.645834695512212        8.278722265133634        0.393137532665201       -0.012307362108914        2.564190610053259
S          -0.023077462761040        5.625455904442635       11.469556452461724        0.684360090046206        0.193534220471264        0.966508191877115
S           4.872825556875925        2.881847052447707        8.267282456753659        0.678368902784112       -0.543867237259924        2.472506830148021
S           4.921150258839025        2.822960116446111       11.768188993661191        0.006119999588002        0.004058231042180       -2.648151821054356
S           3.259126970345298        5.650230402704791        8.364648807574904        0.258977566903751        0.271837459328785        1.498956897787934
S           3.231501008430440        5.695754571668934       11.556423906083106        0.414339887243405       -0.799551219543152       -0.066480529910956
