# total energy = -9678.177674882143 eV 

 CRYSTAL
 PRIMVEC
        7.548819292434800        0.000000000000000        0.000000000000000
       -3.774409646217400        6.537466227730848        0.000000000000000
        0.000000000000000        0.000000000000000       20.000053200316945
 PRIMCOORD
12 1
Mo          1.979762406217102        1.050450664465260       10.078336541734332        0.298100004298598       -0.363360288104245        0.039898396675467
Mo          0.055251318165189        4.370222855330693       10.153543163699073       -2.085239385731934        1.780463509093612       -0.403395467528979
Mo          5.685714829799127        1.142272237692649       10.162789712450376       -0.710470682751325       -1.682354025297968       -0.260361335243146
Mo          3.771973642231731        4.392374110662415        9.822247376530060        0.002598358015223       -0.218283927665343        1.128476707629706
S           1.886007580368920        3.289838857725142        9.305539754546047        0.782154870674362       -0.627270261515420      -21.417220736910650
S           1.807998081800899        3.269832221954402       10.932388819786389        0.548349443402748       -0.745850363602773       21.378939821956315
S           0.009577187036312        6.590102634893137        9.003903278377008        0.520911389542612       -0.089254600553582       -6.639817229771241
S           0.048744990817039        6.491999689132513       10.922557992421851        0.513711783255034        0.265209923750080        6.366526325176273
S           5.620762523961230        3.321125694164567        9.276204287893718        0.501484639600578        0.109430570291417      -10.074835984368057
S           5.723058083956873        3.257336661379635       11.068986969528783        0.032157830041161        0.576377051481061        9.994945602820255
S           3.810067249027145        6.542798713679024        9.257468118409893       -0.249609491241505        1.063057786688160       -8.860817865028610
S           3.831117131624100        6.538957119541103       11.083413518078556       -0.154149016215982       -0.068165374564998        8.747661764592666
