# total energy = -38803.06578962931 eV 

 CRYSTAL
 PRIMVEC
       12.740577282373799        0.000000000000000        0.000000000000000
       -6.370288641186900       11.033658440967770        0.000000000000000
        0.000000000000000        0.000000000000000       19.999979849788435
 PRIMCOORD
48 1
Mo          1.583900923398341        0.847824263371021        9.999991198951946        0.207027890108600        0.546957447529562        0.000000000000000
S           1.596649145027084        2.690278639964671        8.438994011334129       -0.089710200237233        0.381071083030092       -0.085671766698236
S           1.596649145027084        2.690278639964671       11.560989660627493       -0.089710200237233        0.381071083030092        0.085671766698236
Mo          0.062111588309301        3.706185517248865        9.999991198951946       -1.763977588260831       -1.346243586218400        0.000000000000000
S          -0.063176700570107        5.543658328125107        8.438995285391856        0.244139466822955       -0.264456847297815       -0.073211938103767
S          -0.063176700570107        5.543659602182836       11.560989660627493        0.244139466822955       -0.264456847297815        0.073211938103767
Mo         -1.652410829618850        6.475928411781430        9.999991198951946        0.856794028780355       -0.414804228681709        0.000000000000000
S          -1.539877132656827        8.312836815084063        8.438994011334129       -0.178873269477396       -0.247221449558803       -0.045279717995337
S          -1.539877132656827        8.312835541026335       11.560989660627493       -0.178873269477396       -0.247221449558803        0.045279717995337
Mo         -3.193820653722746        9.123068731125713        9.999991198951946        1.229374554049047        1.488438510057599        0.000000000000000
S          -3.181063513689906       10.965520559603906        8.438994011334129        0.241407411383636        0.398601643543839        0.279927439038758
S          -3.181062239632177       10.965520559603906       11.560989660627493        0.241407411383636        0.398601643543839       -0.279927439038758
Mo          4.839828069199475        0.947770269978059        9.999991198951946       -2.733924117931096       -0.556466419707971        0.000000000000000
S           4.714539780320067        2.785243080854301        8.438995285391856        0.233750148528959       -0.119015132936527       -0.067743199237372
S           4.714539780320067        2.785244354912029       11.560989660627493        0.233750148528959       -0.119015132936527        0.067743199237372
Mo          3.125306925329053        3.717514438568351        9.999991198951946        1.252064806691183       -0.943945980229594        0.000000000000000
S           3.237839348233348        5.554422841870985        8.438994011334129       -0.268503765481033       -0.197942378809973       -0.051244679993474
S           3.237839348233348        5.554421567813256       11.560989660627493       -0.268503765481033       -0.197942378809973        0.051244679993474
Mo          1.583897101225157        6.364653483854905        9.999991198951946        0.031184409949568        1.435323865899795        0.000000000000000
S           1.596654241257997        8.207107860448557        8.438994011334129       -0.012336672698043        0.335881867906450       -0.040087629952649
S           1.596654241257997        8.207107860448557       11.560989660627493       -0.012336672698043        0.335881867906450        0.040087629952649
Mo          0.062112862367029        9.223009641501836        9.999991198951946       -1.124167279696483       -0.287230917940442        0.000000000000000
S          -0.063177974627835       11.060481178320352        8.438995285391856        0.960279434576820       -0.084430180427159       -0.519373869165506
S          -0.063177974627835       11.060481178320352       11.560989660627493        0.960279434576820       -0.084430180427159        0.519373869165506
Mo          7.903022132161500        0.959099191297546        9.999991198951946        1.707711284440391       -0.555792790378871        0.000000000000000
S           8.015555829123523        2.796008868657907        8.438994011334129       -0.242187484431151       -0.247894307556610       -0.025845768961236
S           8.015555829123523        2.796006320542451       11.560989660627493       -0.242187484431151       -0.247894307556610        0.025845768961236
Mo          6.361612308057603        3.606239510641827        9.999991198951946        0.165805631824151        1.504743939367850        0.000000000000000
S           6.374369448090444        5.448693887235478        8.438994011334129       -0.040558399151726        0.331898198889246       -0.055591646049616
S           6.374370722148172        5.448693887235478       11.560989660627493       -0.040558399151726        0.331898198889246        0.055591646049616
Mo          4.839829343257204        6.464595668288759        9.999991198951946       -1.356061090913953       -0.623451400284458        0.000000000000000
S           4.714538506262340        8.302068479165001        8.438995285391856        0.338559158823976       -0.150724819496534       -0.063077159136415
S           4.714538506262340        8.302069753222730       11.560989660627493        0.338559158823976       -0.150724819496534        0.063077159136415
Mo          3.125308199386781        9.234346207167693        9.999991198951946        0.889907024072511       -0.767741002804641        0.000000000000000
S           3.237836800117892       11.071250788297140        8.438994011334129       -1.289702688457701       -0.263182608002006       -0.266569009488103
S           3.237836800117892       11.071250788297140       11.560989660627493       -1.289702688457701       -0.263182608002006        0.266569009488103
Mo         11.139330063005506        0.847824263371021        9.999991198951946        1.073746124413355        1.055908574045048        0.000000000000000
S          11.152091025211531        2.690279914022399        8.438994011334129        0.558574982352226        0.575894455202160        0.224312910160787
S          11.152091025211531        2.690279914022399       11.560989660627493        0.558574982352226        0.575894455202160       -0.224312910160787
Mo          9.617545824147378        3.706180421017952        9.999991198951946       -1.095800028738880       -0.395827421993844        0.000000000000000
S           9.492254987152513        5.543654505951923        8.438995285391856        0.272328540251907        0.084131932327252       -0.006346513877673
S           9.492254987152513        5.543655780009651       11.560989660627493        0.272328540251907        0.084131932327252        0.006346513877673
Mo          7.903025954334684        6.475930959896886        9.999991198951946        0.944047795960252       -0.902728864153764        0.000000000000000
S           8.015553281008065        8.312840637257249        8.438994011334129       -0.880383396599538       -0.694026413808359       -0.582282363859216
S           8.015553281008065        8.312840637257249       11.560989660627493       -0.880383396599538       -0.694026413808359        0.582282363859216
Mo          6.361608485884418        9.123068731125713        9.999991198951946        0.165857311020772        1.209044060942209        0.000000000000000
S           6.374373270263629       10.965520559603906        8.438994011334129       -0.071578772646346       -0.061676678619008       -0.039554125808419
S           6.374374544321356       10.965520559603906       11.560989660627493       -0.071578772646346       -0.061676678619008        0.039554125808419
