# total energy = -9541.98272224048 eV 

 CRYSTAL
 PRIMVEC
        4.204419078754800        0.000000000000000        0.000000000000000
       -2.102209539377400        3.641132032678625        0.000000000000000
        0.000000000000000        0.000000000000000       20.000118839462914
 PRIMCOORD
12 1
Mo          1.027763516731085        0.586250321758609        9.897141547312156       13.938859690969043       -4.367394251212612       24.024373985755485
Mo          0.038345563323967        2.392035702826560        9.884458496719184      -17.755474805206386        6.940522276956266       13.949215327796583
Mo          3.183730338007536        0.599692269995296        9.890551540848117      -12.174753290382302       10.970133328625522       27.248929854886157
Mo          2.083414945211550        2.458347380094773        9.844832687785738       12.552650088031834      -16.088910959915037       27.035585532820306
S           1.035173384915482        1.801557417242355        8.531758133254169       -0.047703755138373       -2.040057369700360      -43.700210970635830
S           1.045808462975192        1.845539424783301       11.264569149926237        1.787451256386084       -1.518539970871988       38.194170780028422
S           0.028352920499491        3.643425543286086        8.566183496229103       -0.672839485856012        0.051703107891865      -41.878984916708319
S           0.046908283219759        3.628440573247496       11.651617879710615       -1.601289420411999       -0.112508696370801       16.784662584715100
S           3.111684253557809        1.824516908947619        8.439872656497519        2.673856693499430       -1.705019852449163      -34.254860254145868
S           3.104382438943735        1.840579471596093       11.615005798372819        0.845381668081593        0.325751202705994       17.799513965372370
S           2.109806924652710        3.605107729128039        8.695550948630942       -0.696325495281951        6.647554968190807      -64.149818712147564
S           2.070027654422887        3.624688129219707       11.637081100745819        1.150186341088182        0.896766216149506       18.947423336484025
