# total energy = -9671.948891067686 eV 

 CRYSTAL
 PRIMVEC
        5.191810907663900        0.000000000000000        0.000000000000000
       -2.595905453831950        4.496238041309629        0.000000000000000
        0.000000000000000        0.000000000000000       20.000080883695549
 PRIMCOORD
12 1
Mo          1.278083147391254        0.711902150021056       10.194676240965189       -0.654791362044754        5.708821387727946      -16.068334926346640
Mo          0.010558066661825        2.990582765583833       10.180632392459955       -0.544950957726395       -3.957034947661238      -10.334060634395955
Mo          3.889068735185605        0.781157792442747       10.184727173722830        0.249973045390874        5.178234675558098      -16.572329735084622
Mo          2.557275265592386        2.982524555874048       10.005718206256397        1.570176744272667       -2.659040962026127       -2.185537907736722
S           1.350449722908818        2.214816668768695        8.335692793099417       -1.846106630330950       -0.369909919222371       -1.987104190893195
S           1.275895837455856        2.210392726694275       11.728247364760401        1.204655957217114        1.051823603518049        6.671255921937024
S           0.004589560842375        4.520668107535641        8.264499047665893        0.103317769795482       -0.675350940545572       -0.812107721659660
S           0.010187371363018        4.530804079970673       11.396895609011475        0.020968384086036       -2.036284017015676       21.594592995692135
S           3.914927068592315        2.277687941317232        8.327738938788874        0.668519516395120       -0.297789157787574       -1.461204087658779
S           3.886077213740609        2.272588025462634       11.738620602953912       -1.166682803448632        0.858584802931951        6.076548182281085
S           2.593470494516255        4.451460229774300        8.369303019372360       -0.148733756319225        1.452015732187770       -2.512140403079605
S           2.546948753697043        4.507168879994624       11.449004776729515        0.543654349823094       -4.254070257665255       17.590422506944932
