# total energy = -9696.440866394143 eV 

 CRYSTAL
 PRIMVEC
        5.956207443844399        0.000000000000000        0.000000000000000
       -2.978103721922200        5.158224551555346        0.000000000000000
        0.000000000000000        0.000000000000000       19.999943953578928
 PRIMCOORD
12 1
Mo          1.499072584364624        0.813904430407194       10.015633824263052       -1.248834728347106        1.222573468929448        0.824254903970089
Mo          0.000491387114117        3.455477666786230       10.062793287941179        2.254018499690070        0.626169828870937       -0.730873938110124
Mo          4.452924416437722        0.868715833788428       10.163626519378766        1.199631248064977       -3.867330403853486       -3.365791256841546
Mo          2.973821804390820        3.467895763685901        9.838528974024062       -2.281864844914561        0.983987330304672        6.759584153607878
S           1.478102564817081        2.572639069527703        8.444680537224626       -1.044296438541435       -0.896659772431091       -2.131825996047811
S           1.450444319930845        2.612266908893088       11.599986791187897        1.494878355021708       -0.566468786803380        0.660786148852881
S           0.060328042715722        5.125230736040914        8.582039019570100       -0.178810791642674        0.865540154310123       -3.270232822741829
S          -0.052404499953176        5.182613434175656       11.755623087316295        0.202534628217246       -0.140292820871000        0.101279141188447
S           4.438262616193954        2.565892473356060        8.627964357065862        2.509769844906208       -1.688311273983176       -6.027686915982557
S           4.519968678667124        2.581225538178749       11.394950901761741       -2.809148973598802        2.088272774596331        6.815703647372244
S           2.970461907771747        5.107743906606531        8.276985303505421       -0.050188470343114        1.775109698589853        0.187310862490019
S           3.008545898167688        5.123671996552861       11.658728695861324       -0.047688842733378       -0.402590454769662        0.177492072242310
