# total energy = -9675.669681590634 eV 

 CRYSTAL
 PRIMVEC
        8.918435848296600        0.000000000000000        0.000000000000000
       -4.459217924148300        7.723588405521063        0.000000000000000
        0.000000000000000        0.000000000000000       20.000056148469234
 PRIMCOORD
12 1
Mo          2.235075071405571        1.223531807994413       10.089545982218311        0.109996213239517       -0.334491414695850        0.500283419667160
Mo          0.064492776993372        5.093680801457629        9.928528974038825        0.014279142003901        0.497076995482731       -0.634739833755501
Mo          6.595936025800932        1.294374511311773        9.866823208248045       -0.401851262280669       -0.386571446479494       -0.287906089932127
Mo          4.488980528261235        5.149603853444372        9.919490139306575        0.332516292365260        0.156524459487567        0.066244759645771
S           2.188774119855554        3.851028758848053        8.912219698510338       -0.300881167830229        0.516549511081475        1.365745669516704
S           2.321896936232323        3.814494386395506       11.379034082528801        0.014113305775936       -0.402698698261094       -1.293864277893125
S          -0.003063482713890        7.646433233310279        8.529641988551619        0.325427243562992       -0.082669488195984        1.207345589435326
S           0.072079690369518        7.737038298623879       11.289954069745262       -0.215563185084986        0.324149404721150       -1.074199924323989
S           6.626084798186099        3.934971752582975        8.724314498091822       -0.160050471937673       -0.154106850105305        1.292489765529244
S           6.624352837944359        3.936049991477034       11.219542126879375       -0.030705927437563        0.040170162400985       -1.013046979652835
S           4.489145519324429        7.773892842923380        8.807570772266425       -0.189568292073796       -0.133616434310413        1.151502746494668
S           4.505701703633207        7.645802699895804       11.434265063893717        0.502287595476448       -0.040315944015336       -1.279854587620864
