# total energy = -9509.753413503047 eV 

 CRYSTAL
 PRIMVEC
        3.631055529463300        0.000000000000000        0.000000000000000
       -1.815527764731650        3.144584864903454        0.000000000000000
        0.000000000000000        0.000000000000000       19.999933739505504
 PRIMCOORD
12 1
Mo          0.936694680402377        0.534020789140379       10.024490655693194       -5.640834962022892        5.800304364386609       -0.697172931262376
Mo         -0.033142459345176        2.118714728647435       10.061999822418102       16.222124245069718       -6.739640097478763        4.290574282431264
Mo          2.745589959103909        0.500802440734637        9.994805324317619        3.291583015817832       -2.761273725802983       -3.471852394935309
Mo          1.861919219492732        2.067255409683881        9.959710446414251      -13.766305424553206        3.590149161327750       -7.390861995410581
S           0.950502858369820        1.541667383905128        7.803578053641249       -3.403728158039263       -0.662727075496154       -9.055902461398526
S           0.937304697731327        1.548002486487382       12.027064620808533       -1.928659133280850        2.182870644126003        8.110883816450992
S           0.029196228195756        3.113171877306961        7.783233249509666       -0.432323990557356       -0.283011221547622       -9.524090785969680
S          -0.026916288428806        3.143775139520384       12.202824048184441        0.087903999459780       -2.760590069167076       12.890859833780143
S           2.712169360905176        1.595020661432850        7.846285439462138        3.327951286276297       -1.313098709232806       -8.298419907678525
S           2.725948490428383        1.551613571211434       12.129154651863818        0.986385656404612        2.118106069231236       10.775196827863834
S           1.812148341350378        3.147014404158218        7.993887120523715        0.541594895271151        2.378497486394803       -4.802358508785435
S           1.781843188795925        3.144672010236161       11.979057709442394        0.714308570154178       -1.549586826740996        7.173144224914199
