# total energy = -9681.683488708857 eV 

 CRYSTAL
 PRIMVEC
        8.185842864781000        0.000000000000000        0.000000000000000
       -4.092921432390500        7.089144566971965        0.000000000000000
        0.000000000000000        0.000000000000000       20.000036021847581
 PRIMCOORD
12 1
Mo          2.054480386449876        1.190894428822642       10.009060911536515       -1.544799173406199       -0.462977724577435        0.584212491864389
Mo          0.012411374951581        4.676433687904971       10.186101046678852        0.077306421716712       -0.135756364427245       -0.328231804143840
Mo          6.196791101765032        1.139632225050524       10.098619762567225        1.446659093469271       -0.679950131934481        0.297747763008191
Mo          4.169924837635208        4.686377031232819       10.149409643206045       -0.205023971409744        1.204330712521957        0.160508899836064
S           2.061253352836196        3.556982021268991        8.870239084929604        0.109703621569091        0.075061333433620       -3.197170522908878
S           2.012408428462047        3.522723450295596       10.833719912004570        0.426547747615540        0.092326298872192        3.179958007998221
S           0.066583645862129        7.022747558327153        9.082136994743038        0.515561178584887       -0.540319884644049       -9.723319745376147
S          -0.038498018993065        7.112422648326543       10.846675645506659       -0.384442829221624        0.433403083036071        9.476005478951770
S           6.224871817128377        3.506864198329369        8.985068451468178       -0.031283140355055        0.212476317250950       -6.174354018657772
S           6.197829066640287        3.472725959246086       10.842041639860906       -0.424844905231330        0.038693320085585        6.132733753426206
S           4.050661200016782        7.115016741930392        8.798132450886609        0.025998749667654       -0.024380239504797       -1.066210731902951
S           4.156871692603028        7.061778475690716       11.150367141452886       -0.011382792999203       -0.212906720112367        0.658120427904748
