# total energy = -9684.265119575779 eV 

 CRYSTAL
 PRIMVEC
        7.039168683922899        0.000000000000000        0.000000000000000
       -3.519584341961449        6.096096059494329        0.000000000000000
        0.000000000000000        0.000000000000000       19.999981709846463
 PRIMCOORD
12 1
Mo          1.841457086467256        0.980297860179760        9.869415683670200       -0.131310925076047        0.282565649170778       -0.331987159098356
Mo          0.012997121057995        4.028718965867172       10.134546676067025        0.133634946261442        0.002298567252730       -0.387330179361240
Mo          5.313344725343312        0.978022800861116       10.112160007901544       -0.164209747379218        0.148828630068247       -0.029454828080540
Mo          3.501409208419560        4.025707609504190       10.084370073854284       -0.103491062225945       -0.093968206084265       -0.006989547065489
S           1.718886153924712        3.033510738581127        8.032634716959674        0.295835118512323       -0.244654201905725        4.382222581097031
S           1.767388137907546        3.015914224705056       12.007589216335910        0.004715148193268        0.270586617082193       -4.249058661145096
S           0.011770897873256        6.083797223969778        7.893880031695922       -0.259342149494844        0.206082237943551        4.358388958368441
S           0.016722953042396        6.110277872641828       11.836770413800023        0.114374546768235       -0.236304797770920       -3.884856336379476
S           5.342677645166087        3.050921418403941        8.004043725516183       -0.212745254761728       -0.042721983428205        4.418612448831697
S           5.274559609811766        3.022068569885410       12.130450162628232        0.058119041585895        0.036877092001324       -4.389554085035688
S           3.483745822440993        6.138254344659211        7.876827645559119        0.348762843386823       -0.073091353311649        4.438647522053369
S           3.430592355791823        6.135872993893440       12.194467178307301       -0.084342248659772       -0.256497993907629       -4.318640714184652
