# total energy = -9688.689338430488 eV 

 CRYSTAL
 PRIMVEC
        6.529570993135899        0.000000000000000        0.000000000000000
       -3.264785496567950        5.654771719330517        0.000000000000000
        0.000000000000000        0.000000000000000       20.000062892833274
 PRIMCOORD
12 1
Mo          1.657557061934422        0.895078162438764       10.124944098386624       -4.917004564168757        3.726457541850253       -3.114710836824552
Mo         -0.051882012240160        3.764193204406956        9.909920101925865        1.727975185945612       -0.808478865037173        1.573456702040349
Mo          4.854254151057248        0.997324061663180       10.062046046923946        2.925836228693470       -1.597023187031177        0.976546297322427
Mo          3.272512590881226        3.790878908098803        9.846625052546802       -2.646208323306774       -0.735094148723805        2.951116354706607
S           1.580904469174701        2.833652288947371        8.622738589520893        0.181333559191196       -1.450736093572911       -4.342145235561619
S           1.643311496898697        2.849942915618146       11.252900063252680       -0.104688168392468        1.023875956783762        4.696591505024684
S           0.018626254215019        5.695488818129514        8.969338665150135       -0.366454355030347       -0.181219402159853      -10.857965560686168
S          -0.056305796588009        5.683456777660463       11.162233052270393        2.354184866933347       -2.451514277681476       10.522658591703330
S           4.841103595077072        2.814296028695319        8.909421362845823        1.446878665777306       -0.781250099067834      -10.573014955157857
S           4.895264427593836        2.838161610675231       11.260079979516732       -0.521341278183168        1.447399314399988        7.192082207926989
S           3.216435982235077        5.634408599231324        8.710044830313013        0.490813271163825        2.456811009669563       -6.046383729411113
S           3.240885307861774        5.616365435705991       11.198796690960656       -0.571325088623242       -0.649227749429337        7.021768401806489
