# total energy = -9696.05759415174 eV 

 CRYSTAL
 PRIMVEC
        6.083633325403599        0.000000000000000        0.000000000000000
       -3.041816662701800        5.268578550632652        0.000000000000000
        0.000000000000000        0.000000000000000       20.000011477230910
 PRIMCOORD
12 1
Mo          1.566931625820911        0.843252415234193       10.028663910121434       -0.398720171452509        0.564117254801873       -0.671153869870677
Mo         -0.000873609745528        3.459925313530147        9.993409863364052        1.360726102573186        1.097165028016815        0.075102213992142
Mo          4.638985771239963        0.839447102589153       10.115518118018224       -0.328934486951638       -0.541771273026785       -1.493062898268740
Mo          3.049690709314869        3.552709847192540       10.172218188974318       -0.488712936053361       -0.645883256943485       -1.757564997002403
S           1.517846438698224        2.634495510486057        8.129215487453944        0.241945286405192       -0.129694986017501        3.682903291957049
S           1.504076743029505        2.668072299535625       11.958076052006536        0.285575383875528       -0.502435176863815       -3.310516627953296
S           0.037611454670975        5.303668947653580        8.024338515830646       -0.102021419002611       -0.408867805941408        3.969551083440086
S           0.047491883554763        5.228481323384917       11.754702623391623       -0.271293927877748        0.079513714766453       -2.008542315736584
S           4.599695233771177        2.585258232530236        8.395328209827079       -0.739340327491013        0.200369758388611        1.619450415702447
S           4.586614813758226        2.613972373462808       11.732858121210096        0.136621026806544       -0.023345370020207       -1.000167803945479
S           3.066494312922966        5.277812897657282        8.049352590974708        0.218030159669991       -0.122592567472823        3.835809436349799
S           3.098879926567420        5.234890431093230       11.961333837652289        0.086125309498439        0.433424937422702       -2.941807414443481
