# total energy = -9661.995253252499 eV 

 CRYSTAL
 PRIMVEC
        8.727297025957800        0.000000000000000        0.000000000000000
       -4.363648512978900        7.558057406905104        0.000000000000000
        0.000000000000000        0.000000000000000       19.999988775209427
 PRIMCOORD
12 1
Mo          2.251643505426815        1.275892425088116       10.045133713282370        0.402217644644778        0.084345333984944        0.282961342124017
Mo          0.055788373508733        5.046550777963072        9.802843002328920       -0.190387188796385        0.253117505961443       -0.562475604700231
Mo          6.606175483932399        1.261787367634763       10.184620356188850       -0.104119440119197        0.082824011564988        0.436727006687446
Mo          4.401442072749810        4.997766060317670       10.057152946746520        0.193416978114749       -0.399585605163101       -0.179561554101060
S           2.275353825986937        3.726359465900897        7.933831253140876       -0.257924442578562        0.123249741734342        3.423477581572145
S           2.210715100564181        3.754847981582730       12.336676675252461        0.296339312067424       -0.156050090742457       -3.190383835973412
S           0.104055562440495        7.487820993169898        7.838224586951211       -0.132203355381889       -0.546306701028817        3.218205755706962
S          -0.055343281360409        7.600252142566204       11.980234664658886        0.074849217328083        0.441916266515394       -3.325683315164852
S           6.496027395438083        3.737435278556539        8.046445675774727        0.227807555138316        0.317224392373830        3.294833662996385
S           6.597354804828264        3.811752576381083       12.201822481607360       -0.291742434672394       -0.343863347014560       -3.223911807501127
S           4.333562901941316        7.573144285273877        7.793213552539833        0.099287049569414       -0.032201795924854        3.162056437132606
S           4.286566407456532        7.631549975160693       12.227671862668544       -0.317540895314335        0.175330287738848       -3.336245668778879
