# total energy = -9698.81352285459 eV 

 CRYSTAL
 PRIMVEC
        6.402145111576700        0.000000000000000        0.000000000000000
       -3.201072555788350        5.544417720253212        0.000000000000000
        0.000000000000000        0.000000000000000       20.000000427745366
 PRIMCOORD
12 1
Mo          1.541983539132717        0.963323732579323       10.058430031447999        2.646525854689003       -1.028055029728491        0.047209074669217
Mo          0.039311091628614        3.679244932884947        9.903312457539606        0.484430247604957        1.144280514489165        2.759929552469954
Mo          4.741356325393943        0.947387512967586       10.166260081133263        0.024376639958764       -2.248406550313633       -5.200940611936522
Mo          3.269193940633571        3.681955601125188       10.100517733411504       -2.701904613301788       -0.858140773217693       -3.505708953593784
S           1.646864120565077        2.732050124485219        8.549688990592633        0.601906317501792        0.330802394232520       -1.461109985241050
S           1.659965470321408        2.771164670258908       11.658287681960347       -0.713804376599077        0.197621762102573       -0.260134049622183
S          -0.000426382864431        5.534639724024300        8.430211518305878       -0.199407908266412        0.682950867774146        0.668331568670093
S           0.055961150420292        5.548801269011109       11.677145200386496       -1.287891088361198       -0.605190389036370       -0.380347060056525
S           4.834701521764265        2.770652498649981        8.532036355876482       -0.554730667188599       -0.583726296039455       -1.718028611813720
S           4.824995229560603        2.760993582320145       11.347238821499882        1.912758652899352        1.525594309766077        5.642886960372337
S           3.182649102800766        5.533680042472075        8.608459402287885       -0.529644402440401        0.281375484985892       -1.611938163130828
S           3.177604212452843        5.487807392318606       11.390432814138668        0.317385343503608        1.160893447874837        5.019849764992146
