# total energy = -9596.035292847262 eV 

 CRYSTAL
 PRIMVEC
        4.363648512978900        0.000000000000000        0.000000000000000
       -2.181824256489450        3.779028703452552        0.000000000000000
        0.000000000000000        0.000000000000000       19.999988775209427
 PRIMCOORD
12 1
Mo          1.103534417933368        0.602076149037669       10.129760567083681       -0.237759271478828        5.317181009102192       -5.530887856875688
Mo          0.004244520908575        2.490299733533806        9.956622339574810        2.730522032708710       -0.652034366893632        4.297313918157866
Mo          3.296025176847943        0.629984735832128        9.975029518097109        1.876466487128448       -1.576041433202732       -2.043737134188175
Mo          2.226033688668993        2.510542262620663        9.863917499646275       -2.131105829730709        2.741159462568577        3.248421887773556
S           1.094821957312354        1.862391658029004        8.509795329476880       -1.328099817326826       -3.686356542155194      -25.741503739502594
S           1.106208461742121        1.899863180539657       11.681978416067077        0.801014435005712        2.805821450401394       15.776865542951917
S           0.002125533190672        3.785389593889921        8.579667378561252       -2.416635447949527        1.393428749617538      -27.727368401008157
S          -0.028122841936446        3.801127092251980       11.572619275223905        4.178495731811450       -2.868286943822569       21.839359811966620
S           3.262661156682558        1.893180252842029        8.310965684982996        1.785435253496972       -1.307074354725119      -18.897677353192581
S           3.303758434742645        1.865757776491916       11.473976382398911       -2.314542809357541        1.699722092019352       23.614177690217339
S           2.197630700498013        3.782085439235893        8.223843696961966        0.168844934228460        1.103953514725298      -15.062187505108460
S           2.164321225939040        3.800396617490907       11.487434310777790       -3.112635698536321       -4.971472380524673       26.227222881697919
