# total energy = -9698.022693151137 eV 

 CRYSTAL
 PRIMVEC
        6.083633325403599        0.000000000000000        0.000000000000000
       -3.041816662701800        5.268578550632652        0.000000000000000
        0.000000000000000        0.000000000000000       20.000011477230910
 PRIMCOORD
12 1
Mo          1.521689469869882        0.922075618778117        9.962720975054054       -0.585732014511328       -0.939100991268694        3.686257554639277
Mo          0.036545602112364        3.503189680287087       10.183505762246272       -0.918974386733603        0.250644360726095       -2.874385346134371
Mo          4.496654302685486        0.905609656819580        9.804165064784058        2.851774026394538       -1.004801191021704        6.500724086171073
Mo          3.011880928197486        3.508828600016405        9.877881058151306        0.503227591212016        0.880085148499631        6.071357636900983
S           1.534900687999328        2.638418237254277        8.510274202967253       -2.118994899991044        0.378375537271968       -3.253349666293224
S           1.529433935093120        2.622438357598440       11.722502560563594        0.780561300223308       -0.079506001453524       -0.599665085875165
S          -0.048916062116240        5.278172440386813        8.547726266445101       -0.759411396173019       -2.250140503059988       -4.006613294951697
S          -0.028464711966231        5.254677448484104       11.676752421229894        0.407129739428158        1.070583666112619       -0.462381742598483
S           4.479440053827924        2.669707580173493        8.470189142986168        2.609446673888948        0.738752315935421       -3.453968821799862
S           4.568286651638783        2.582863106090024       11.550448893034526       -1.223043466797232       -0.285325729647071        0.580433739860656
S           3.102651170865838        5.239561444760474        8.376836397971182       -0.676507166153573        1.025484696750243       -1.840373067720672
S           3.056626051305829        5.261346327335413       11.525062499530948       -0.869476000787169        0.214948691155005       -0.348035992198515
