# total energy = -38803.37354113164 eV 

 CRYSTAL
 PRIMVEC
       12.740577282373799        0.000000000000000        0.000000000000000
       -6.370288641186900       11.033658440967770        0.000000000000000
        0.000000000000000        0.000000000000000       19.999979849788435
 PRIMCOORD
48 1
Mo          1.590438113601927        0.918231241548875        9.996329557040992        0.135209490540605        0.071645107137532        1.616650740219787
S           1.617662179138904        2.710046919676003        8.438995285391856       -0.318089054753129        0.553838236882757       -0.040309773364993
S           1.563211499949494        2.804306806641917       11.560989660627493        0.329736414385784       -0.511014694834325        0.153631967139333
Mo         -0.002132772637069        3.676646488819681       10.003651566805173        0.147969367007999        0.109399717039703       -1.610867555296335
S          -0.023581534491946        5.469841971466490        8.381248618859496        0.191884342835831        0.466013170325280        0.598563110568095
S           0.019310892986894        5.561338427219858       11.503250638441502       -0.263074364510574       -0.567596730263976        0.851580857682329
Mo         -1.594706206991522        6.435060462032760       10.007541265049481       -0.004359307356828       -0.004530542903843       -1.796984139834571
S          -1.644709150651655        8.272544739428556        8.377663420412237        0.494455497528722        0.048314906632751        0.626512299964967
S          -1.544703263331390        8.275463605683948       11.499660343763329       -0.635895030921778       -0.070071591300092        0.885837994392230
Mo         -3.187277093230519        9.193475709303566       10.004351024497975        0.031166926440263       -0.031389841183901       -0.262874589705723
S          -3.218938701834946       11.076620941621663        8.431600654337167        0.415227175340628       -0.484169023407108        0.044344864468388
S          -3.155616758683820       10.988220446147912       11.553600125803715       -0.379896859691924        0.494554485044639        0.234925143198420
Mo          4.775582434195377        0.918231241548875       10.006400983382708        0.001371941259571       -0.056910365449980       -0.733209272154480
S           4.731237580906347        2.786556634372114        8.405975531249130        0.531914687545727       -0.305082352272020        0.253346848465855
S           4.819928561542135        2.727795817888077       11.527969906484765       -0.583881847850182        0.356138056098743        0.451629898596842
Mo          3.183011547956380        3.676646488819681       10.000001391413774        0.007756250370594        0.003281500430268        0.004603305155803
S           3.179693901632050        5.568668081330407        8.471974269687282        0.035413362317902       -0.662897025491015       -0.497093450550312
S           3.186329194280711        5.462514865471397       11.593969918980646       -0.019850467932247        0.591113850052060       -0.295941305120307
Mo          1.590438113601927        6.435060462032760        9.993592881040739        0.066404682333824        0.093885930746360        0.181082876521016
S           1.631260197272381        8.300999544731010        8.507040160541559       -0.576428473567252       -0.374913545319170       -0.952860770202068
S           1.549617303989202        8.247015170670135       11.629039632008107        0.448068919128127        0.291751433537478       -0.679534127257197
Mo         -0.002134046694798        9.193474435245838        9.993189004740888        0.118408352319475        0.013738952988467        0.220783041054217
S           0.044539784121451       11.008010384840624        8.478284677615241       -0.633329840152148        0.357152613859288       -0.643149915952011
S          -0.048807877511046       11.056831002928952       11.600280326908607        0.564639188976711       -0.334985580944144       -0.413883516228462
Mo          7.960726754788827        0.918231241548875        9.992444955027597        0.064508750015968       -0.019854324588711        1.010353233667728
S           8.011087708670594        2.752903673538452        8.496762336847867       -0.664922798576503        0.017877659595536       -0.773758415330692
S           7.910365800907060        2.761451326837196       11.618760534256689        0.547096544272708       -0.021320368266012       -0.533975427649824
Mo          6.368154594492102        3.676645214761953        9.996325734867808        0.049936759231210       -0.023695040206305        0.157752418905804
S           6.395404141183644        5.468477455639548        8.439037329296889       -0.309416205696183        0.550602502109199       -0.086363907978365
S           6.340901225627376        5.562705491162256       11.561030430474796        0.325354481311032       -0.544610543515812        0.097366434650186
Mo          4.775582434195377        6.435059187975031       10.003641374343346       -0.000685456408924        0.054470130349794       -0.138838090052662
S           4.754162975668250        8.228239381929102        8.381271551898607        0.255730005050369        0.496322633478311        0.574706605011152
S           4.796999344607047        8.319770237241130       11.503269749307426       -0.309358612959650       -0.610139250611376        0.823427522603279
Mo          3.183011547956380        9.193474435245838       10.007541265049481        0.120925463438516        0.064955607944967       -0.263155354296325
S           3.133011152411704       11.030930683371613        8.377645583604043        0.574355906383330       -0.053763847995963        0.648507583112234
S           3.233009395385600       11.033910704397959       11.499639958839678       -0.733557142567561        0.040628847409808        0.925933594768239
Mo         11.145871075382276        0.918231241548875       10.006792119105278        0.141806687088458        0.066074552540479       -1.032345174379392
S          11.102100822128682        2.735273262695102        8.370942765895785        0.386112504360241        0.188327991354873        0.770691602110271
S          11.189631136174047        2.779079189565088       11.492939689246878       -0.546324441648553       -0.282120333904366        1.071738606168465
Mo          9.553300189143279        3.676646488819681       10.006400983382708        0.116266879540058        0.010377748324603       -0.314608036628441
S           9.508938773103782        5.544943852372898        8.405937309517283        0.438909874246247       -0.318601990062883        0.400011380036761
S           9.597660331125050        5.486237820371176       11.527940603157015       -0.482244551831416        0.362570187749923        0.629566000553410
Mo          7.960726754788827        6.435060462032760       10.000001391413774       -0.005287990233434       -0.000800898992422       -0.027991612617980
S           7.957379805136747        8.327084602658942        8.471937322013162        0.000300819204216       -0.595999205350620       -0.488541700506345
S           7.964077526614092        8.220927564626747       11.593930423191070        0.026727400628978        0.548693200048933       -0.282886265878178
Mo          6.368154594492102        9.193474435245838        9.993594155098465        0.060697344987504        0.096415383166087        0.217928858160195
S           6.408958841354361       11.059440273156380        8.507037612426103       -0.610902097260017       -0.319095642090315       -0.935418141455707
S           6.327352895745300       11.005401114613193       11.629039632008107        0.449148011606842        0.245418076996090       -0.646886501845068
