# total energy = -9697.930777000656 eV 

 CRYSTAL
 PRIMVEC
        6.338432170797099        0.000000000000000        0.000000000000000
       -3.169216085398550        5.489240720714558        0.000000000000000
        0.000000000000000        0.000000000000000       19.999965611692456
 PRIMCOORD
12 1
Mo          1.548202623683085        0.875760890056089        9.888623524880710        1.836534923207388        1.717730106603382        2.984834587953229
Mo         -0.006373927390954        3.708340307490736       10.151270406428464        1.654997732554876       -0.603861642329199       -1.766711443473166
Mo          4.791459836798366        0.919551850237692        9.816477588383048       -2.957164363373942       -0.300084639715133        7.568252509032664
Mo          3.211483920329510        3.608987284743143        9.956775615267555       -2.778742836923732        0.838241968524427        2.237068237418986
S           1.589451872564198        2.729990625063862        8.181108845487161       -0.052864218598054       -0.022942220864471        2.637821895269911
S           1.577332156410417        2.733362037135509       11.814189778597937        0.155995840441526       -0.074867729279111       -3.083802820588259
S           0.075387410709809        5.447634618102229        8.336577275929255       -1.129807511220325       -0.290890884925074        0.578122831307240
S          -0.013573118650545        5.494744381368461       11.787353490629998       -0.020556493175647        0.337885529494876       -2.663269657284030
S           4.749602098428857        2.718455312356229        8.537392117807666        1.222784813703692        1.895699118695112       -2.915872171052273
S           4.761750337527406        2.746821697850197       11.519981307898917       -0.392498870354711       -0.677685760369067        0.646161964650639
S           3.092912137396843        5.529804785078008        8.552493432454590        2.450922666579850       -2.295504039055817       -4.345049812100108
S           3.174959338788509        5.536687688572277       11.642588136751513        0.010398317159079       -0.523719806779925       -1.877555864024401
