# total energy = -9699.296379827076 eV 

 CRYSTAL
 PRIMVEC
        6.529570993135899        0.000000000000000        0.000000000000000
       -3.264785496567950        5.654771719330517        0.000000000000000
        0.000000000000000        0.000000000000000       20.000062892833274
 PRIMCOORD
12 1
Mo          1.589118016526967        0.928083184937768       10.041851389756374        0.500421230858151       -0.309002515012778       -1.166653492859504
Mo         -0.049396857520172        3.791064347915008       10.035360343232098        0.657931451737997        0.282970598099531        0.038468605568931
Mo          4.878756366208990        0.941028059431660        9.929657689123916        0.039147377106650       -0.356448131278473        1.967154735445031
Mo          3.248237604800046        3.756701827606531        9.976915459186737       -0.727896085098813        0.775871348852273        0.996576228335480
S           1.572291312077655        2.851101261512328        8.276954710265791        0.072163441766335       -0.132225466878951        2.348026043670271
S           1.622809296937349        2.775535189365866       11.529823739771269       -0.146698727258223        0.580533241597435       -0.455744179712971
S          -0.023504496703991        5.681746683017360        8.292873151389959       -0.083670676214120       -0.140393351049503        2.274138162243526
S          -0.000435522385242        5.668557602568325       11.736587175968612       -0.088222559283732        0.026554108198515       -2.560661512277982
S           4.845483631299268        2.865950811864918        8.552182657197463        0.561508612369413       -0.269128800938683       -0.899122890359632
S           4.908055204212291        2.868966820706647       11.744826841604850       -0.268579098837303       -0.338601582045083       -2.356885297789658
S           3.291111420898075        5.674091413985008        8.294132052677435       -0.352199124296525       -0.158102860423195        2.078149308487942
S           3.245074680610970        5.635034785089565       11.686969618948870       -0.163905842849830        0.037973410878913       -2.263445453641004
