# total energy = -9679.534684349663 eV 

 CRYSTAL
 PRIMVEC
        6.911795720088600        0.000000000000000        0.000000000000000
       -3.455897860044300        5.985787888489730        0.000000000000000
        0.000000000000000        0.000000000000000       20.000075772584175
 PRIMCOORD
12 1
Mo          1.716299098335941        1.018893380742425       10.125971495491674        0.303095402861606       -0.289127878700021        0.476123266691259
Mo          0.027776433460320        3.987350671218916       10.164173681616177       -0.338820640132256        0.265012462939107        0.320774830314876
Mo          5.161405571722466        1.035979339762484        9.863881040042918       -0.253128561709974       -0.074894211653500       -0.388204869047346
Mo          3.487009234939562        3.934763655841766       10.012199882041156        0.169822468086948        0.079068656610471        0.278361122293385
S           1.728758301300972        2.958686084867002        7.713387772828016        0.183756310782077        0.053660232492288        4.169765032907540
S           1.765229773777164        2.969226573340138       12.410400848990880       -0.259501300851604        0.004065430134247       -4.410395456568832
S          -0.003765546308304        5.978553311909513        7.950651749229785        0.241633411452445        0.250684727063755        4.546327941641281
S          -0.057576640707482        6.027819209443161       12.102920631048303       -0.061488730893981       -0.243883899054587       -4.437756891520544
S           5.136863858659147        3.020570156667243        7.633182604112536       -0.157216600767696       -0.320051321562171        4.322122760751064
S           5.147754083995720        3.032020237457143       12.060263792582203        0.258183095672102        0.089355130732085       -4.540703908074589
S           3.401482674699186        5.988329355776006        7.585867215331096       -0.207607674130402        0.068400887719752        4.127848833569945
S           3.504220297462155        5.936882095513099       12.052648376057812        0.121272562520304        0.117709783278572       -4.464262920068470
