# total energy = -38798.39347345545 eV 

 CRYSTAL
 PRIMVEC
       12.740577282373799        0.000000000000000        0.000000000000000
       -6.370288641186900       11.033658440967770        0.000000000000000
        0.000000000000000        0.000000000000000       19.999979849788435
 PRIMCOORD
48 1
Mo          1.590438113601927        0.918231241548875       10.063551390898253       -0.000264823743883       -0.000152980706418       -4.654972011124410
S           1.590438113601927        2.757176863158960        8.343888150036666        0.000018511951029        0.000002571104310        1.854253174335732
S           1.590438113601927        2.757176863158960       11.465890169618671        0.000025196822234        0.000003085325171        2.800701353279373
Mo         -0.002132772637069        3.676646488819681       10.063551390898253       -0.000051422086191        0.000032395914300       -4.655004407038710
S          -0.002134046694798        5.515590836372038        8.343888150036666       -0.000002828214740        0.000012855521548        1.854237490599444
S          -0.002134046694798        5.515590836372038       11.465890169618671       -0.000004885098188        0.000013369742410        2.800728606985054
Mo         -1.594706206991522        6.435060462032760       10.063551390898253        0.000201574577868        0.000116471025222       -4.655012120351639
S          -1.594706206991522        8.274006083642846        8.343888150036666        0.000009770196376       -0.000008998865083        1.854237490599444
S          -1.594706206991522        8.274006083642846       11.465890169618671        0.000009255975514       -0.000011055748531        2.800728606985054
Mo         -3.187277093230519        9.193474435245838       10.063551390898253        0.000002313993879       -0.000060935172136       -4.655004407038710
S          -3.187278367288247       11.032421330913650        8.343888150036666        0.000011569969393        0.000014912404995        1.854253174335732
S          -3.187278367288247       11.032421330913650       11.465890169618671        0.000015426625857        0.000020311724045        2.800701353279373
Mo          4.775582434195377        0.918231241548875       10.063551390898253       -0.000186405062442       -0.000440430168224       -4.654918789265202
S           4.775582434195377        2.757176863158960        8.343888150036666        0.000008998865083        0.000005142208619        1.854238519041168
S           4.775582434195377        2.757176863158960       11.465890169618671        0.000006427760774        0.000003599546033        2.800724236107727
Mo          3.183011547956380        3.676646488819681       10.063551390898253       -0.000474625855541        0.000058621178258       -4.654918789265202
S           3.183010273898652        5.515590836372038        8.343888150036666        0.000008484644221       -0.000012598411117        1.854245718133235
S           3.183010273898652        5.515590836372038       11.465890169618671        0.000008998865083       -0.000016197957150        2.800708038150578
Mo          1.590438113601927        6.435060462032760       10.063551390898253       -0.000237312927771        0.000140896516163       -4.655003892817848
S           1.590438113601927        8.274006083642846        8.343888150036666       -0.000014141073702       -0.000008227533791        1.854238776151599
S           1.590438113601927        8.274006083642846       11.465890169618671       -0.000013369742410       -0.000007713312929        2.800727578543330
Mo         -0.002132772637069        9.193474435245838       10.063551390898253        0.000003342435602       -0.000276136602845       -4.655003892817848
S          -0.002134046694798       11.032421330913650        8.343888150036666       -0.000006684871205        0.000013626852841        1.854245718133235
S          -0.002134046694798       11.032421330913650       11.465890169618671       -0.000009513085945        0.000015940846719        2.800708038150578
Mo          7.960726754788827        0.918231241548875       10.063551390898253        0.000261738418711       -0.000395950063669       -4.654928816572009
S           7.960726754788827        2.757176863158960        8.343888150036666       -0.000019283282322        0.000004113766895        1.854239547482891
S           7.960726754788827        2.757176863158960       11.465890169618671       -0.000022882828355        0.000000771331293        2.800721922113849
Mo          6.368154594492102        3.676646488819681       10.063551390898253        0.000075590466701        0.000043708773262       -4.654873794939785
S           6.368154594492102        5.515590836372038        8.343888150036666       -0.000006170650343       -0.000018769061460        1.854239547482891
S           6.368154594492102        5.515590836372038       11.465890169618671       -0.000010798638100       -0.000020054613614        2.800721922113849
Mo          4.775582434195377        6.435060462032760       10.063551390898253       -0.000212116105537        0.000424746431936       -4.654928816572009
S           4.775582434195377        8.274006083642846        8.343888150036666        0.000004370877326       -0.000018254840598        1.854259602096506
S           4.775582434195377        8.274006083642846       11.465890169618671       -0.000001028441724       -0.000034709908179        2.800707009708854
Mo          3.183011547956380        9.193474435245838       10.063551390898253       -0.000001542662586       -0.000000771331293       -4.655006978143019
S           3.183010273898652       11.032421330913650        8.343888150036666       -0.000013626852841        0.000012855521548        1.854259602096506
S           3.183010273898652       11.032421330913650       11.465890169618671       -0.000030596141284        0.000016455067581        2.800707009708854
Mo         11.145871075382276        0.918231241548875       10.063551390898253        0.000223171854068       -0.000134211644958       -4.654993608400610
S          11.145871075382276        2.757176863158960        8.343888150036666       -0.000008741754652        0.000008227533791        1.854250346120992
S          11.145871075382276        2.757176863158960       11.465890169618671       -0.000013883963272        0.000013883963272        2.800716008573937
Mo          9.553298915085552        3.676646488819681       10.063551390898253        0.000459456340115        0.000046794098434       -4.654948614075193
S           9.553298915085552        5.515590836372038        8.343888150036666       -0.000005913539912       -0.000003342435602        1.854238519041168
S           9.553298915085552        5.515590836372038       11.465890169618671       -0.000009513085945       -0.000005399319050        2.800725264549452
Mo          7.960726754788827        6.435060462032760       10.063551390898253        0.000270223062933        0.000374352787469       -4.654948614075193
S           7.960726754788827        8.274006083642846        8.343888150036666        0.000002571104310       -0.000011827079824        1.854250346120992
S           7.960726754788827        8.274006083642846       11.465890169618671        0.000005142208619       -0.000019026171891        2.800716008573937
Mo          6.368154594492102        9.193474435245838       10.063551390898253       -0.000004627987757        0.000260452866557       -4.654993608400610
S           6.368154594492102       11.032421330913650        8.343888150036666       -0.000006941981636       -0.000004113766895        1.854384814876381
S           6.368154594492102       11.032421330913650       11.465890169618671        0.000002313993879        0.000001285552155        2.800645303205425
