# total energy = -38802.72817334763 eV 

 CRYSTAL
 PRIMVEC
       12.740577282373799        0.000000000000000        0.000000000000000
       -6.370288641186900       11.033658440967770        0.000000000000000
        0.000000000000000        0.000000000000000       19.999979849788435
 PRIMCOORD
48 1
Mo          1.622377466791110        0.936670679049655        9.999991198951946       -1.173326536984488       -0.677420422404323        0.000000000000000
S           1.612771071520200        2.770070327368722        8.453946352832723       -0.221458984377196       -0.127877986601948       -0.543153498703595
S           1.612771071520200        2.770070327368722       11.546039867244355       -0.221458984377196       -0.127877986601948        0.543153498703595
Mo          0.029805306494385        3.695084652262732        9.999991198951946       -1.172965811049859       -0.677815601136699        0.000000000000000
S           0.020198911223475        5.528485574639529        8.453946352832723       -0.221494979837529       -0.127860760203074       -0.543161983347816
S           0.020198911223475        5.528485574639529       11.546039867244355       -0.221494979837529       -0.127860760203074        0.543161983347816
Mo         -1.562766853802340        6.453499899533539        9.999991198951946       -1.173127276400498       -0.677305236931255        0.000000000000000
S          -1.572373249073249        8.286899547852606        8.453946352832723       -0.221478267659517       -0.127890070792202       -0.543161983347816
S          -1.572373249073249        8.286899547852606       11.546039867244355       -0.221478267659517       -0.127890070792202        0.543161983347816
Mo         -3.155339014099065        9.211913872746619        9.999991198951946       -1.173488516555989       -0.676910315309309        0.000000000000000
S          -3.164945409369975       11.045310972950229        8.453946352832723       -0.221475182334346       -0.127849961564974       -0.543153498703595
S          -3.164945409369975       11.045310972950229       11.546039867244355       -0.221475182334346       -0.127849961564974        0.543153498703595
Mo          4.749753461870821        0.903318395839857        9.999991198951946        1.603091507422557        0.925098757198931        0.000000000000000
S           4.854979163703675        2.803016186163212        8.458738083948624       -1.337743515371055       -0.772346621954323       -0.595388310966673
S           4.854979163703675        2.803016186163212       11.541250684243911       -1.337743515371055       -0.772346621954323        0.595388310966673
Mo          3.157181301574096        3.661732369052935        9.999991198951946        1.602704813334402        0.925768529871566        0.000000000000000
S           3.262407003406949        5.561431433434019        8.458738083948624       -1.337710091015031       -0.772345850623030       -0.595380340543314
S           3.262405729349221        5.561431433434019       11.541250684243911       -1.337710091015031       -0.772345850623030        0.595380340543314
Mo          1.564609141277371        6.420147616323741        9.999991198951946        1.602562374155653        0.925639717545658        0.000000000000000
S           1.669834843110224        8.319845406647097        8.458738083948624       -1.337714204781926       -0.772329652665880       -0.595394224506585
S           1.669834843110224        8.319845406647097       11.541250684243911       -1.337714204781926       -0.772329652665880        0.595394224506585
Mo         -0.027963019019354        9.178562863594548        9.999991198951946        1.602908701906149        0.925039878910242        0.000000000000000
S           0.077262682813499       11.078260653917903        8.458738083948624       -1.337726288972181       -0.772318082696487       -0.595380340543314
S           0.077262682813499       11.078260653917903       11.541250684243911       -1.337726288972181       -0.772318082696487        0.595380340543314
Mo          7.931578862082211        0.901402213016587        9.999991198951946        1.535873327685194        0.886601098151302        0.000000000000000
S           7.929816840244060        2.739331136559539        8.421907623140736        0.336215854356259        0.194125317352028        0.367898030100155
S           7.929816840244060        2.739331136559539       11.578079870994069        0.336215854356259        0.194125317352028       -0.367898030100155
Mo          6.339006701785487        3.659817460287394        9.999991198951946        1.536096756649693        0.886865921895185        0.000000000000000
S           6.337244679947335        5.497745109772617        8.421907623140736        0.336225367442205        0.194108862284447        0.367898030100155
S           6.337244679947335        5.497745109772617       11.578079870994069        0.336225367442205        0.194108862284447       -0.367898030100155
Mo          4.746434541488762        6.418231433500472        9.999991198951946        1.535755571107817        0.886804729612618        0.000000000000000
S           4.744672519650610        8.256160357043424        8.421907623140736        0.336208655264193        0.194102434523673        0.367913456726012
S           4.744672519650610        8.256160357043424       11.578079870994069        0.336208655264193        0.194102434523673       -0.367913456726012
Mo          3.153862381192038        9.176645406713551        9.999991198951946        1.535540369677108        0.886544790966923        0.000000000000000
S           3.152100359353885       11.014570508083317        8.421907623140736        0.336201713282557        0.194114004493066        0.367913456726012
S           3.152100359353885       11.014570508083317       11.578079870994069        0.336201713282557        0.194114004493066       -0.367913456726012
Mo         11.174850792468764        0.934960893578360        9.999991198951946       -1.631857793769001       -0.942624946835352        0.000000000000000
S          11.069811103064234        2.713265189497530        8.421096048367849        1.056531809729681        0.609981384806770        0.082461485857343
S          11.069811103064234        2.713265189497530       11.578890171709228        1.056531809729681        0.609981384806770       -0.082461485857343
Mo          9.582277358114311        3.693376140849167        9.999991198951946       -1.631997661843441       -0.942672255154648        0.000000000000000
S           9.477241490882966        5.471679162710609        8.421096048367849        1.055795959676291        0.609564094577331        0.082657404005730
S           9.477241490882966        5.471679162710609       11.578890171709228        1.055795959676291        0.609564094577331       -0.082657404005730
Mo          7.989705197817585        6.451790114062245        9.999991198951946       -1.632376899729098       -0.942015338003560        0.000000000000000
S           7.884668056528511        8.230093135923687        8.421096048367849        1.056525381968908        0.609992697665732        0.082461485857343
S           7.884669330586241        8.230094409981415       11.578890171709228        1.056525381968908        0.609992697665732       -0.082461485857343
Mo          6.397133037520860        9.210205361333051        9.999991198951946       -1.632266085133357       -0.941917893150228        0.000000000000000
S           6.292097170289515       10.988510931309950        8.421096048367849        1.056532838171405        0.609989612340560        0.082474855599752
S           6.292097170289515       10.988510931309950       11.578890171709228        1.056532838171405        0.609989612340560       -0.082474855599752
