# total energy = -9682.345349456114 eV 

 CRYSTAL
 PRIMVEC
        8.185842864781000        0.000000000000000        0.000000000000000
       -4.092921432390500        7.089144566971965        0.000000000000000
        0.000000000000000        0.000000000000000       20.000036021847581
 PRIMCOORD
12 1
Mo          2.053457974676065        1.250270440042331        9.923991176732851       -0.042258927542057       -0.149741886318997       -0.149795879509497
Mo         -0.011754051769539        4.790155509903941       10.055407516668334       -0.057503776324622       -0.112426163922464        0.170176252039940
Mo          6.171196426879721        1.217924900546436        9.987034445555963        0.030255984183393        0.023248696498168       -0.078986638382997
Mo          4.027867720559799        4.743042709879981       10.110454035596838        0.150605777367003        0.033868128627868        0.196045418050393
S           2.033999407602194        3.571651870266965        8.470918116884143       -0.027724474880218       -0.167069072481859        1.861102081995489
S           2.072837957658434        3.497827027806651       11.587776836348173        0.083019158382082        0.271635113419624       -1.880498750017102
S          -0.054860700295476        7.130564113283471        8.283594107350783       -0.037697531386499        0.076050180151070        2.450777399186361
S          -0.026177506897283        7.051775375709953       11.599570998747749        0.094788645469440       -0.119752525652503       -2.273781035854931
S           6.082199943253823        3.559901911418858        8.465473712794777        0.125987967824003       -0.197523288807518        2.116862683187141
S           6.198249818963536        3.560776978021103       11.706163770195783       -0.010362321698746        0.078283184243906       -2.247427216682129
S           4.084488377071203        7.059306351145552        8.632526301057798       -0.063163548241216        0.326338442930293        0.706235302622217
S           4.154361094596400        7.036877960280338       11.443274608009053       -0.245947210262994       -0.062910294466726       -0.870709616634887
