# total energy = -9681.814115111189 eV 

 CRYSTAL
 PRIMVEC
        7.994704042442199        0.000000000000000        0.000000000000000
       -3.997352021221099        6.923613568356005        0.000000000000000
        0.000000000000000        0.000000000000000       19.999959362479569
 PRIMCOORD
12 1
Mo          1.944030609539649        1.197776153283541       10.132846066132345        0.198134697412327       -0.030758120855046        0.389871973081652
Mo         -0.031276881154842        4.674399522463402        9.886020771407601       -0.050297485165839       -0.096825731413890        0.343147294464353
Mo          5.991963524296471        1.096084317334081        9.941780634222017       -0.131459020684277        0.187129085415334        0.088479926825118
Mo          3.888226709452976        4.673700785330093        9.987552713276212        0.198414947782067       -0.300519156343446        0.153316749750983
S           2.021297825169044        3.425484445301975        8.281470079092578       -0.173099854750320        0.352162614615329        2.927189915112444
S           2.012926570566203        3.505576189869565       11.724331813101207        0.000509078653289       -0.148195624187238       -2.987954365922427
S          -0.012577268399570        6.936160456880214        8.334112806800849        0.230962814346985       -0.254961244861816        2.787864857903555
S          -0.055845406147671        6.915749977459859       11.832077238951605       -0.121834348811939        0.108922520079852       -3.238330303358606
S           5.968602199614051        3.422424072594528        8.250465017875181        0.178220723203634        0.076490096098432        2.576516227002770
S           5.950489398135494        3.518932941913273       11.610759846944678       -0.030294807858467        0.015861656706424       -2.701794312926909
S           3.941036526475732        6.884510671414017        8.322621219210241       -0.333257798848132       -0.011310802078535        3.038431571279502
S           4.024089509420643        6.951507090760086       11.890508132386602        0.034000797610240        0.102004449714168       -3.376739790322867
