# total energy = -9583.572743900177 eV 

 CRYSTAL
 PRIMVEC
        4.013280256416000        0.000000000000000        0.000000000000000
       -2.006640128208000        3.475601034062666        0.000000000000000
        0.000000000000000        0.000000000000000       19.999977480556058
 PRIMCOORD
12 1
Mo          0.995092438250321        0.571694983150664       10.064401085737453        3.749674613765413        2.333656141684243       -6.220934715433738
Mo          0.003472691405877        2.326100447242919       10.034211987664616       -2.642007653085845       -1.815368049868656       -3.844489998719673
Mo          3.039979127301966        0.590321018148717        9.898627728809883       -3.684711035397088        3.837325873671566       -6.074674618570723
Mo          1.986102969151842        2.330383821260591       10.194034051299946        5.755067326722809       -4.966112656481003       -4.375426123965188
S           0.969146982720618        1.752955465935611        7.928351130349218        1.345532418766380       -0.408087475783462       -8.143177400799695
S           1.030119947000295        1.738567454888334       11.779240823765781       -3.457700265484299       -1.360978585016383       17.410544707013798
S          -0.024296800000368        3.476862408047257        8.201134993361888       -2.479931922283547        0.116476167430854       -9.917145529076112
S           0.039406398837749        3.465296937004318       11.863514090558157       -0.041567300482790       -0.322422908177292       11.683124464931490
S           2.998851432562240        1.732145403822017        7.979266814306316       -1.410124472561978        1.311931942097136       -8.862791444696613
S           2.992233132091385        1.720337530651590       12.103987435554449        1.413957474866643        0.290123924509538       11.655198415473404
S           1.965631226563864        3.475237430871434        8.046919080916746        1.954972071895130       -1.491756263058631       -8.974732441235867
S           2.004633488079792        3.495794255000849       11.805209154992944       -0.503160999610399        2.475211631881659       15.664505199299780
