# total energy = -9649.500440841475 eV 

 CRYSTAL
 PRIMVEC
        4.936959144545499        0.000000000000000        0.000000000000000
       -2.468479572272750        4.275530043155016        0.000000000000000
        0.000000000000000        0.000000000000000       19.999922649061634
 PRIMCOORD
12 1
Mo          1.219478771990098        0.751253617154087       10.136734346975391        0.764858023542352       -1.543575327754857      -11.449774123122666
Mo         -0.021969961889142        2.864954912469252       10.163140166655907       -0.054730840326781       -1.753040881859334       -8.051284847224524
Mo          3.661430087995547        0.714827251497887        9.841982581472676        6.791421624052071        0.047955723360708       13.958126518223024
Mo          2.514192358079840        2.832916022404810       10.156912192695064       -3.615598466004454        0.861183418057605      -15.552490154956409
S           1.231817713980061        2.146020110963102        8.462255546305689       -0.427890892506844        1.087635229893499       -7.296231729966610
S           1.242264813225833        2.129964132433212       11.504402859431824       -0.260383703850639        1.532221331123921       20.463303499947791
S          -0.047169682450646        4.314833668600657        8.634828927986936       -6.366031901817548       -5.281477626218172      -19.268839143103268
S           0.033956404996184        4.293309514122267       11.586182106573476        1.116530585676283        2.004418521534511       12.856222173632430
S           3.687353566767641        2.095994397647337        8.512304957025350        0.851326575466115        6.960955614235487      -14.351196945065745
S           3.633810763757302        2.177264644301188       11.617149182807639        2.834193586457185       -4.191631503728898       14.201068364658592
S           2.435573258486611        4.305311261802657        8.341434332553058        2.847766703217687       -2.176296844627367       -7.084993913661565
S           2.428154983676016        4.303920520411639       11.368660180360719       -4.481461551015856        2.451652088872467       21.576090043528520
