# total energy = -9696.190781826735 eV 

 CRYSTAL
 PRIMVEC
        6.656943956970200        0.000000000000000        0.000000000000000
       -3.328471978485100        5.765079890335118        0.000000000000000
        0.000000000000000        0.000000000000000       19.999962657666302
 PRIMCOORD
12 1
Mo          1.614849453414579        0.928120446202325       10.046084659901544        0.103146277138036        0.838000284719330       -0.674309129079346
Mo          0.034552867608654        3.796266747146123       10.002463037540309       -0.257746522160342        0.532535609236481       -0.827465441921414
Mo          4.943302792456600        1.016741012629491       10.044600827093536        0.433308980618341       -0.857421635342314       -1.264018127736673
Mo          3.315914319404671        3.826749559219485        9.946233163324573       -0.148126718591743       -0.137384901896909        0.041745992232303
S           1.637618864525000        2.879449791782733        8.045330168218214        0.136568319168198       -0.053467142558642        4.080989429086825
S           1.607990804055713        2.901622740714610       11.939860065113175        0.170162882297531       -0.192564142815274       -3.926861495926181
S           0.036058002637325        5.798831261891352        8.267049006426648       -0.396691313041850       -0.239217087622338        3.040402322732766
S          -0.083838883582874        5.813902583009933       11.644858259354436        0.443007957405225       -0.520328005974777       -1.890177929300802
S           4.986211456120043        2.900686108699864        8.080165955945040       -0.042683416863562        0.057712292884126        3.803942912426909
S           5.035838973319255        2.843901045358117       11.623016160537221       -0.363582688627020        0.606585213124296       -1.934354129326485
S           3.288504352661846        5.796520636643888        8.381343408612659        0.030499210651076       -0.176761621507969        2.199245236142181
S           3.300498834283516        5.709592265370584       11.734672415833087       -0.107862710883459        0.142311137753990       -2.649139639330083
