# total energy = -9667.746494888306 eV 

 CRYSTAL
 PRIMVEC
        5.701408598450900        0.000000000000000        0.000000000000000
       -2.850704299225450        4.937562381473441        0.000000000000000
        0.000000000000000        0.000000000000000       19.999982625323110
 PRIMCOORD
12 1
Mo          1.430656740172724        0.825020050675398        9.830186260373891       -6.644189135539187        2.608078846396272        8.045556426822865
Mo          0.003269187690352        3.332518937063339       10.000718242257857        0.756684225831888       -3.281012948890875       -2.025523431259383
Mo          4.273501647645210        0.790147384982973        9.891935936340273        3.327538881145047       -3.868948399795480        7.785826297687711
Mo          2.777806088885657        3.333867320196872        9.855152728626509        3.069023598796152        3.452387592649493        7.208408463182148
S           1.417557183776923        2.490833669054669        8.650301416277152       -2.973436625438600        0.976220024185547      -17.155488331292531
S           1.448806034164172        2.490645522570920       11.138885309498871        0.430732219879319       -2.335695798733002       15.903804048039159
S          -0.063522243899641        4.966928626741482        8.683922052641357        3.533447826658136       -3.305738744814875      -19.397647612354838
S          -0.039652726661366        4.969336901733468       11.049296225487113        0.046922139428273        2.857099554750892       20.672255347411220
S           4.275624282066413        2.425740687086155        8.955639213485471        1.009553877337892        4.227401221104103      -23.907801401913023
S           4.238067963346697        2.497388008379448       11.248066143877487       -1.595013869013270       -0.877486019153115       12.241025560844186
S           2.877470132031738        4.978225967879312        8.614072955620015       -1.776443844616074       -0.642223032848422      -16.376049060989907
S           2.832239717338507        4.947387618911152       11.377137482433518        0.815180705530424        0.189918219370325        7.005633693822392
