# total energy = -9698.105772128609 eV 

 CRYSTAL
 PRIMVEC
        6.083633325403599        0.000000000000000        0.000000000000000
       -3.041816662701800        5.268578550632652        0.000000000000000
        0.000000000000000        0.000000000000000       20.000011477230910
 PRIMCOORD
12 1
Mo          1.551317980891262        0.826572309382601       10.067317491181051       -1.535224638067897        1.742382626054560       -0.355497336904805
Mo         -0.072160408325942        3.532263363949191        9.942629167633577        5.190868053693461        0.149225865684072        2.947214703916878
Mo          4.493150129890053        0.916018753439345       10.037475444629949        2.986487808024264       -2.436639667919485        1.102708586018618
Mo          3.037030060001372        3.530241772595160        9.818972628298091       -1.559777141561433        0.752744522698377        4.501758876877100
S           1.544892447372971        2.675639731029094        8.240742478665242       -0.764651306755865       -0.919643645185376        0.908164949995428
S           1.565527523249407        2.617632287271371       11.606187141561872       -0.329732814839750        0.634080859720965       -1.105655585778214
S           0.044936757558094        5.284069306169127        8.554973698825656       -1.133012649852599        0.464698821802242       -3.477706542337704
S          -0.004392991624274        5.307001561989236       11.787531125542166       -0.032009734432931       -0.574187756161486       -1.367741617792201
S           4.603920317115670        2.650320257492097        8.531307756826502       -0.681788214405372       -1.194219073493392       -4.994606662881067
S           4.603220090919915        2.658171794661863       11.424919202998147       -1.795878050760606        0.885535375414997        3.279203919898682
S           3.046867903451882        5.305413125327973        8.340124104305701       -0.059051324008535        0.780544073824434        0.242375689266610
S           3.042929967600349        5.262875752753418       11.713723877675037       -0.286230758364030       -0.284521745329478       -1.680218980279325
