# total energy = -9614.73940897848 eV 

 CRYSTAL
 PRIMVEC
        4.554734417592800        0.000000000000000        0.000000000000000
       -2.277367208796400        3.944513873995805        0.000000000000000
        0.000000000000000        0.000000000000000       19.999888929728577
 PRIMCOORD
12 1
Mo          1.186767024697844        0.637029254905505        9.902817030776331      -10.528587815351564        1.763200857648918       14.445726423220783
Mo         -0.014258596094274        2.603741258223430        9.849577651115974        2.332565993456997       -4.514653993431176       16.731357678838393
Mo          3.456585672143967        0.645200903924108        9.841768558957011        4.356766591549121       -0.711684758206291       15.297032429852422
Mo          2.248457398501055        2.664655365377433        9.820000572228450       -0.648605799296859        2.299040850144022       12.499803610053517
S           1.119217580444292        1.945906431971803        8.391407666677027       -0.108769025152572       -1.627971569605130      -21.734223242982566
S           1.133692070949960        1.965184345394264       11.451528758808838        1.338828778500113        0.848645942112987       15.416181260213046
S          -0.026345950291682        3.912179814365313        8.653932538091357        2.041825775244462        2.411790201878196      -39.952821040159883
S          -0.030555891313863        3.920541851282572       11.681957783202717        1.120105449108269        0.379801985942902        9.250905810872263
S           3.365003171735987        1.993602244372509        8.466730676161085        0.894601346320872       -2.123149547444833      -27.224708509627686
S           3.431551940837994        1.945265125365806       11.442647482167974       -2.095210385354767        0.174392863107589       14.738055069675754
S           2.251001673146722        3.943803790900102        8.293636193142422        1.777160411387144        1.746452941286995      -18.959323692780739
S           2.305231252069466        3.942787629651537       11.723452324693870       -0.480680806190353       -0.645866030544611        9.492014202824699
