# total energy = -9694.292882322485 eV 

 CRYSTAL
 PRIMVEC
        7.293967529316399        0.000000000000000        0.000000000000000
       -3.646983764658200        6.316758229576235        0.000000000000000
        0.000000000000000        0.000000000000000       19.999949555872629
 PRIMCOORD
12 1
Mo          1.767029279684662        1.089726772244152        9.956925781578288        0.632898151738576        0.114884653863248        0.485189751817996
Mo          0.024879723242498        4.230202843731562        9.905744011425075        0.697158018857381       -0.811275455194661        1.010012562346714
Mo          5.471825760376976        1.055161389519475        9.823338225072364        0.588052436150689       -0.548927170541102        0.873870275162607
Mo          3.639406791188746        4.240785661219848        9.894261118343671       -0.442396805910847       -0.351231360634413        1.261099667234912
S           1.844582389440118        3.181907995244186        8.400316524163111       -0.123882490504920       -0.005006197201108        0.657226712046752
S           1.839455459663762        3.156539576177224       11.417736069463423       -0.058490566158624        0.119998066114064       -0.774584511145348
S          -0.009454440711500        6.300292097878803        8.668113812605210       -0.119097408274432        0.339388082853372       -2.041530355359296
S           0.063863062099683        6.263722332877069       11.270115648827847       -0.304878463700273        0.433475588177600        1.294651550032707
S           5.478286027417692        3.151357941644397        8.768779317270811       -0.005280791141368        0.067621586003530       -2.593045856608813
S           5.529621700285773        3.121638670946198       11.361385064522183       -0.239066935130660        0.213417855649104        0.589909801903902
S           3.741493160729058        6.259230707672516        8.539882216456062       -0.437627921637509        0.403341474338479       -0.895874814285388
S           3.645249259179728        6.328048561914863       11.344412731478219       -0.187386967177581        0.024312619461456        0.133074702632393
