# total energy = -9669.187427158693 eV 

 CRYSTAL
 PRIMVEC
        4.936959144545499        0.000000000000000        0.000000000000000
       -2.468479572272750        4.275530043155016        0.000000000000000
        0.000000000000000        0.000000000000000       19.999922649061634
 PRIMCOORD
12 1
Mo          1.201529963324188        0.708874759857309        9.974860343152203        0.402074434134737        1.976877109281132       -0.553342013751016
Mo         -0.066349768727205        2.888736738364442        9.942493145304649        3.943532279158818       -1.827409045571101        1.825439065449130
Mo          3.676754902876131        0.698231169637583       10.156266932134869       -1.524395918047400        3.056815738424018       -1.257121397536759
Mo          2.429512647440766        2.860673581499102       10.015825255349984       -1.136823540660202       -1.493473503626974        0.079419098127862
S           1.274642872383506        2.116600771420756        8.200565115106254       -0.689684332850405        0.276374172882971       -2.559719716769397
S           1.264931873746185        2.097789969688209       11.903819146190733       -0.440342493567523        0.561202393846146        2.948764822705101
S           0.053579336508009        4.244194176072757        8.249708100126975       -0.512708281243020        1.180870157028683       -4.176370971210045
S          -0.051897808223377        4.298357554847565       11.764575175694313       -0.908458312997146       -1.013811883184924        4.493696407983241
S           3.714531033162449        2.162342685286799        8.408001821178537       -1.623800467083760       -1.612955034885252       -7.261797701280211
S           3.734001906332622        2.163924980692626       11.948378164645742       -0.219026462589938        0.615476348937122        1.759216417300422
S           2.436611500994708        4.293786918071545        8.167170536060718        0.455707927142206       -0.372326243052479       -3.055443282943584
S           2.427675111247166        4.293804197428551       11.649985391773926        2.253925168603633       -1.347639952968912        7.757259529035688
