# total energy = -9697.03512777479 eV 

 CRYSTAL
 PRIMVEC
        7.039168683922899        0.000000000000000        0.000000000000000
       -3.519584341961449        6.096096059494329        0.000000000000000
        0.000000000000000        0.000000000000000       19.999981709846463
 PRIMCOORD
12 1
Mo          1.788581666981101        1.008625586714471        9.877776104316094       -1.268837405654478        0.452322811208264        0.483948422657349
Mo          0.030974453959866        4.033799837823227       10.048034589024743       -0.719629984743636        0.143450394073548       -1.680178099720803
Mo          5.219316917897207        1.026143965818150       10.058452558676949        1.209862443443936        0.565448829723785       -1.180731831616830
Mo          3.550391967623506        4.073889311311905        9.922313628496143       -0.927916944632619       -0.264495156752027        0.857227259856513
S           1.725537464414151        3.000356957996718        8.457965222015821        0.202528971787765        0.413161293027911        0.002810988341622
S           1.714511310587654        3.102307349796579       11.406991858052505        0.846645880070594       -0.671729797236014        0.507259082769377
S          -0.027642111504897        6.145665885366514        8.558855515011881        0.611542816453954       -0.587169518930793       -1.581495002553700
S          -0.007640313689530        6.082436552663176       11.227899920562400       -0.577169722939692        0.101737569086838        3.394640589857188
S           5.250839019180683        3.079534935187219        8.578250536486694        0.538729913739029       -0.397210676112377       -0.552182959928274
S           5.280244442440902        3.099917552028387       11.513857701344349       -0.200713000813935       -0.197361052125586        0.042108003719087
S           3.477556985334088        6.058721593367039        8.554797434265600       -0.075982302997298        0.481742672270194       -0.944473570833912
S           3.493547160916487        6.104757052643027       11.392542556495016        0.360939336286381       -0.039897368233743        0.651067374562814
