# total energy = -9016.929420639135 eV 

 CRYSTAL
 PRIMVEC
        3.631055529463300        0.000000000000000        0.000000000000000
       -1.815527764731650        3.144584864903454        0.000000000000000
        0.000000000000000        0.000000000000000       19.999933739505504
 PRIMCOORD
12 1
Mo          0.909527486036485        0.529948197258533       10.057671604226982       -4.621663097683867       35.237309292742140      -39.885471476992294
Mo         -0.020301594570782        2.091666269797357        9.806860800795940       17.078729811904182      -31.178280951115266       39.660809667976707
Mo          2.704567019943139        0.550859082947159       10.175068712972273       19.717366233019355        1.444397807229030     -120.074317354572457
Mo          1.789814081894203        2.099545297190740       10.020117775519061      -12.399042289273011      -34.217739164345566      -11.630025504509975
S           0.893460791529716        1.593293368317484        8.784776766140492       19.949992551854617      -15.715567330887275     -112.969207635013902
S           0.913648007851320        1.549598335392582       11.053328453633442      -17.857202861207281       19.172667500625728      133.069607989203689
S           0.042764393392701        3.130145972590543        8.979552031324198        7.945499588623174       50.594533331364381     -145.574358146838335
S           0.011675295949436        3.152104054693867       10.866247758222222      -39.385483220099879      -71.176734721892188      195.640576336690344
S           2.728557040720750        1.565382896884711        8.868969324491053      -27.400562017093527      -24.219508975769870     -124.701781120689091
S           2.751182147724835        1.555059079803341       10.924240435399941       20.992361176384755       76.575818515885260      179.798299843220235
S           1.818524474860116        3.145483914252549        9.161553606260805      -13.604161045265842       17.423761725827429     -165.247875995631460
S           1.775103586627688        3.165089072372781       10.991048952297641       29.584165168837320      -23.940657286774226      171.913743140046137
