# total energy = -9587.988828180125 eV 

 CRYSTAL
 PRIMVEC
        4.554734417592800        0.000000000000000        0.000000000000000
       -2.277367208796400        3.944513873995805        0.000000000000000
        0.000000000000000        0.000000000000000       19.999888929728577
 PRIMCOORD
12 1
Mo          1.084367030048081        0.683272107026999        9.976440213375744       11.590774769010082       -2.378103336104151        0.308634589986083
Mo          0.058141184840572        2.590052914878238        9.801855876729086       -4.114366476791570        9.415381410437089       13.927317232392216
Mo          3.439412046022434        0.617830593861910        9.943364642982068       -3.969468293881319       -0.440610402636578        3.761876303487205
Mo          2.231385798430475        2.643917659574132        9.870890619876214        0.299689718093187       -6.928352983148776       10.696473470562134
S           1.120026501276856        1.981705733547199        8.423096320440546        4.020928432415933       -4.256258524543106      -29.145129567590335
S           1.085497059657085        1.982768353086823       11.347520031962780        0.777822045691923        2.352207944829740       28.200254904484137
S          -0.004945075157181        3.981958345642835        8.532654535700997       -1.702351303286290        2.685300164560338      -27.180680405210232
S           0.031318809328810        3.916917193633052       11.319584023885916       -2.540651892988974       -2.641964972754307       25.158373168331657
S           3.443035792725070        1.942950409334785        8.644506515214148       -4.983064718525103       -2.500602058269675      -37.773058604033679
S           3.371488658073198        1.992653948666766       11.237530938826426        2.561650101885000        2.202963310084209       27.566425241654212
S           2.341539772952749        3.906523289692105        8.635506815478427       -0.795217623229419        4.455132928665288      -39.539163524000230
S           2.307569197246016        3.939123801286025       11.439541153295176       -1.145744501283018       -1.965093481120071       24.018677189936835
