# total energy = -9244.27651646735 eV 

 CRYSTAL
 PRIMVEC
        3.822194351802100        0.000000000000000        0.000000000000000
       -1.911097175901050        3.310115863519414        0.000000000000000
        0.000000000000000        0.000000000000000       20.000094431321056
 PRIMCOORD
12 1
Mo          0.965598283559718        0.532424028817329        9.894735823563066      -11.644821695590526       16.944483199927500       44.756612425377021
Mo         -0.018709641352071        2.185150039803001       10.122833680334429       23.819530248757843        0.909467471438641      -38.735492881132323
Mo          2.874397938435900        0.547897800431165        9.951036746365110        5.680643112937093       -1.290705933359284        5.916677687645081
Mo          1.914802411105687        2.175294511666880        9.827181596150444        7.732360954902087        0.776483014567513       39.411167009489610
S           0.957637417163785        1.680947182982203        8.878937221606215      -28.423100228305035        1.978356265590411     -108.182943467874907
S           1.002625409123366        1.635659530985441       11.120392006405613       14.354513412514622       -2.799338925105746       88.615358716180907
S          -0.028003689137913        3.297817188753620        8.955046284417039       14.563128188203072      -20.834947114806088     -115.041311505938822
S          -0.036845571331937        3.328936730727122       11.081831798687457        1.297484135650529       12.915166025480826      101.702613895307977
S           2.828319474427750        1.678572071411993        8.656098322043494       16.318034406238979       -3.807984688401508      -78.151914970720199
S           2.860656767521736        1.651849964040239       10.973811999672307      -32.227304879150651       -7.941699496453672      123.938094235159738
S           1.938044792739560        3.323433153079963        8.965220201342664      -11.706014749488908        8.507584899689217     -130.700569595563678
S           1.911873463573901        3.314973872540554       11.255225645456958        0.235547093330898       -5.356864461457381       66.471708194959191
