# total energy = -9692.074755026846 eV 

 CRYSTAL
 PRIMVEC
        6.211059206962799        0.000000000000000        0.000000000000000
       -3.105529603481400        5.378932549709958        0.000000000000000
        0.000000000000000        0.000000000000000       20.000070264801529
 PRIMCOORD
12 1
Mo          1.479281139157202        0.917458536379541        9.897296138740632        0.565989018739220       -0.122482781318805        0.080476336219945
Mo         -0.065004945660073        3.633464667225872       10.037075405087409        0.570494107710399       -0.198695455262238       -0.078411739459384
Mo          4.593856529267623        0.943348094471924        9.804063171196754        0.789323109489364       -0.146982834284427        0.379364383989418
Mo          3.129754597706317        3.586537009387665       10.092420911468812       -0.173045347338958        0.291801055850652       -0.368716412601882
S           1.606783625875497        2.634877896590904        8.001411929911923       -0.396514935286215        0.277626557792149        3.931077592772968
S           1.569442116817316        2.735453578329253       11.819874237829023       -0.336062102318549       -0.157367524590666       -3.484014489650734
S          -0.000488189253667        5.390568969134203        8.086280464021783       -0.317917047874821       -0.026213179767070        3.482093617621075
S          -0.001852137855516        5.427040308797489       12.106235122566044       -0.273960677267604       -0.236430524771656       -4.090888694899422
S           4.681393955518715        2.691861259285184        7.920543939037267       -0.056243935212947       -0.095051412329875        4.008920089738218
S           4.673868636183559        2.683073231613252       11.913613406698268       -0.164858179886085        0.209901356284944       -3.853321999133379
S           3.127334769039284        5.341936375543685        7.939119974913452       -0.322073752212057        0.337942350900117        4.115271248398098
S           3.092246011155468        5.386800719513339       12.076593463606734        0.114869741458253       -0.134047608503124       -4.121850447215784
