# total energy = -9691.303292762477 eV 

 CRYSTAL
 PRIMVEC
        7.548819292434800        0.000000000000000        0.000000000000000
       -3.774409646217400        6.537466227730848        0.000000000000000
        0.000000000000000        0.000000000000000       20.000053200316945
 PRIMCOORD
12 1
Mo          1.996240723850558        1.023889388902899        9.955967916358178       -1.181986787630317        0.752668932231677        1.062224234671006
Mo          0.065298041761490        4.312860132409411        9.991833866580395       -0.676617980749315        0.093983889820553        0.975017518699974
Mo          5.624704517395740        1.142416420141135        9.814467563367275        0.253172270483237       -0.042127801222270        1.310034467116694
Mo          3.834646204643312        4.295460858822278        9.844688506522608       -0.260685808607010        0.134976548490161        1.428118088961874
S           1.861661883268888        3.244391946056968        8.672066995746656        0.410264172691920       -0.165087522390496       -0.642061053276920
S           1.815574831724715        3.274096549972699       11.490282044947994        0.381041001109670       -0.084487001832399       -0.828631694836222
S          -0.013649020162651        6.488039578531701        8.705890990350268        0.303908386044283        0.011189960175987       -1.734138122975583
S          -0.012198891976575        6.598348965088193       11.304476916647863        0.501617308582950       -0.307187315370242        0.882250275438696
S           5.642507652815018        3.276849604368650        8.365348654429949       -0.084162014247673       -0.125069055143773        1.069395558811180
S           5.621035036337688        3.241230500537296       11.413579246999493        0.120215581538652       -0.003419054510828       -1.505418597138674
S           3.815984768470484        6.567536194500333        8.594764066664405       -0.011390763422562       -0.177443221260429        0.256493365919872
S           3.754975210949027        6.515782244313328       11.655238089244349        0.244624377095735       -0.087998358987940       -2.273284041391896
