# total energy = -9689.859248732884 eV 

 CRYSTAL
 PRIMVEC
        7.293967529316399        0.000000000000000        0.000000000000000
       -3.646983764658200        6.316758229576235        0.000000000000000
        0.000000000000000        0.000000000000000       19.999949555872629
 PRIMCOORD
12 1
Mo          1.845859563154501        1.062726692640882        9.895968636142284       -0.375457848101500       -0.061930189503929        0.788274613151933
Mo         -0.067582256142881        4.252636170264728        9.880924098716317        0.319262506760004       -0.176155612222210        1.246923112292962
Mo          5.468337055707703        1.097521835342733       10.064179197716369       -0.123489625766422       -0.304380183685084        0.230274015502459
Mo          3.564717293085299        4.261508552367388        9.854773766330212        0.304938370430686       -0.044645426562173        0.894808063107359
S           1.851565633952686        3.166434572527494        8.115883883976901       -0.113963427189139        0.019906003785333        3.349263941229381
S           1.738258224765273        3.199875954855904       11.892323172535667        0.121885770898130       -0.068521729622301       -4.091444824761576
S           0.034703968107734        6.287479514516805        8.302331552564533       -0.291302775835463        0.213021648475004        2.747452240366180
S          -0.000903722576882        6.256087737064133       11.862606819424478       -0.007139185336304        0.295076899851439       -3.821091406840258
S           5.464974536676689        3.208013834428363        8.346783178878447       -0.184534584056576        0.026872410912036        2.209105678279704
S           5.422993377164955        3.126718189933614       11.679461859334118       -0.015951388246827        0.146707469012876       -3.049696607701328
S           3.567656032602860        6.362011462921619        8.241022108496864        0.267235439725136       -0.077678974731164        2.922424373274708
S           3.572502144629338        6.352397284321228       11.726709263402020        0.098516746718275        0.031727941400605       -3.426292940791093
