# total energy = -9691.295686360916 eV 

 CRYSTAL
 PRIMVEC
        5.956207443844399        0.000000000000000        0.000000000000000
       -2.978103721922200        5.158224551555346        0.000000000000000
        0.000000000000000        0.000000000000000       19.999943953578928
 PRIMCOORD
12 1
Mo          1.471068879446645        0.821951266663828        9.928431969181450       -1.380231014086230        2.676240107194375        2.631665386000714
Mo         -0.039801165002001        3.471230048612965       10.040978678178099        2.036875371006871       -1.447559494198473        0.813291200973342
Mo          4.525789680201992        0.849861459124938       10.162784311646206       -3.195505989978881       -0.385447873896224       -5.475544836612805
Mo          2.952200771369665        3.409533269426647        9.995551875245386       -0.950696414594296        1.876650578197011       -0.760877954071181
S           1.411909444631405        2.608070165128156        8.548214908737995        0.338582041652331       -0.159774335334828       -5.258237414364226
S           1.489956608871820        2.541791871176033       11.344105736917363       -0.666525110782209       -0.320895157996563        7.094146530782672
S          -0.012911866496766        5.150599414785736        8.727329383368540        3.076723799092798        0.766765011608739       -9.031682658802644
S          -0.061572294450741        5.198561775227294       11.423689007057545       -0.234898917934462       -0.212558078367994        7.261054652134754
S           4.493927544101892        2.544386990759316        8.709590606359283       -0.594949937681897       -1.006483464571437       -7.859244438357103
S           4.415421751888300        2.612801776321546       11.360216682432219        0.314467911443571        0.780484938425315        9.622468435944807
S           2.959561452528768        5.134914933723861        8.604635083749812       -1.403420060964417       -0.072792848101311       -6.346740134851764
S           2.978420592158212        5.208327572952220       11.440154942536054        2.659578579937252       -2.494629640069041        7.309701488333866
