# total energy = -9693.898328235246 eV 

 CRYSTAL
 PRIMVEC
        5.828834480010100        0.000000000000000        0.000000000000000
       -2.914417240005050        5.047916380550747        0.000000000000000
        0.000000000000000        0.000000000000000       20.000054246341612
 PRIMCOORD
12 1
Mo          1.464115205977889        0.864919181801123        9.833543369869311       -1.806659719572238       -2.979295657939184        5.161142745439558
Mo          0.003964773213303        3.355570828974271        9.969812776760227       -0.582632805376606        1.439345587260780       -0.653705327584403
Mo          4.327922424843355        0.836023317749921        9.977543559931064        3.040910115833900       -0.865740443335836       -0.393229835309914
Mo          2.883770976959501        3.382216180032740        9.868281474719828        0.129368198659758        1.635567125956377        5.392509223163141
S           1.458800474699016        2.506586514874599        8.454113551401145       -0.860518787593588        1.384557411307896       -6.438824492808428
S           1.403373504745152        2.512152468919561       11.366910958304199        2.080133686794047       -0.759050927348821        5.235548704384676
S           0.005395169194697        5.064540799371184        8.464981413289124        0.841972897988003       -1.032165968409017       -5.463428250443659
S           0.042722442321234        5.010805940066867       11.465396111445346       -1.984632588320433        0.928347090383605        3.671659852811423
S           4.356768160918029        2.534508380684191        8.615472593427816        0.926554516458993       -0.969441821894302       -8.385128857855230
S           4.417678315467239        2.512515022424218       11.510114346692536       -1.724629150797175        0.528725232649740        2.724523903464981
S           2.972080733748894        5.003788606236382        8.293152618769458       -1.572106358056978        1.063727302250365       -2.144966653063448
S           2.851127755221100        5.064147935927231       11.518017663363981        1.512239993982318       -0.374575187992035        1.293899244911735
