# total energy = -9697.809020697121 eV 

 CRYSTAL
 PRIMVEC
        6.911795720088600        0.000000000000000        0.000000000000000
       -3.455897860044300        5.985787888489730        0.000000000000000
        0.000000000000000        0.000000000000000       20.000075772584175
 PRIMCOORD
12 1
Mo          1.763210147067754        0.977217326089007       10.181219552221059       -1.655024729150126        0.273562927430918       -3.719076672708852
Mo         -0.076300004133630        4.005409811076364        9.913788352219388        1.062514255237123       -0.213608631588872        1.298377337287663
Mo          5.184146070821130        1.028078466074851        9.864715984965905       -0.541758160394807       -0.489707696310722        1.269796684672368
Mo          3.528310670264952        3.967281581166067        9.998663821302934       -1.670856303936129        0.902968491075413        0.628141351655493
S           1.706561760525480        2.931764640537257        8.604220784827783        0.282750254460203       -0.034028308426352       -0.412872300903519
S           1.795741895983495        2.948467686074423       11.491076723853336       -0.406949247905628        0.799767192305153        0.505813865036984
S           0.007677622685874        5.935875738056254        8.374847314420066       -0.348152206113306        0.407010697298626        0.857755107571262
S          -0.063766153774821        6.008338313206091       11.381872425014652        1.757932664918668       -0.834857366811346        1.263810639618893
S           5.120098606960500        3.018793133987609        8.597735446903624        0.432974994168532       -0.018324774634965       -2.185579045405674
S           5.176205799897892        3.035057971676121       11.529602382017538        0.281385769403130       -0.319849232763441       -0.517935850525180
S           3.406761904270190        6.008639667499486        8.417675565420023        0.684221507523922       -0.139454126645228        0.847073197606840
S           3.370526815207626        6.035559038290516       11.450824499118257        0.120961201788419       -0.333479170929183        0.164695943204153
