# total energy = -9051.16610155197 eV 

 CRYSTAL
 PRIMVEC
        3.822194351802100        0.000000000000000        0.000000000000000
       -1.911097175901050        3.310115863519414        0.000000000000000
        0.000000000000000        0.000000000000000       20.000094431321056
 PRIMCOORD
12 1
Mo          0.962125437771671        0.564336293899395        9.913110640689919       31.740141804775082       -0.230141603630518       26.866964541777204
Mo         -0.037739200371388        2.213476704363642       10.044766125137743        7.463891642218801       11.195630746541713       10.256569093168956
Mo          2.885907330068047        0.539839085859825        9.843583014333463      -12.391904903709724      -17.856955778083133       62.506518989980229
Mo          1.945762949794154        2.208354199493356        9.968848936483379      -32.431828256551327      -14.305312246226372       58.963823158231108
S           0.938488987900127        1.667140652544624        9.121088904789719       -8.890199673746759       23.296107661636103     -155.905491578977859
S           0.933600783543607        1.643035219426113       10.900326491064559       11.984667177900564       -4.275820514571822      141.656451035890996
S           0.030605074613750        3.309515396786745        9.005066577460202      -13.229783575195214      -21.254013720212154     -145.593070901113606
S          -0.016075767224244        3.297291637030247       10.936813922785733       11.314822257233876       24.869318566104457      133.633128490695299
S           2.848330572956610        1.677653598109255        9.218390888622981       21.056260831789793       14.079703499493576     -195.940017428996811
S           2.896240250278709        1.634760168654462       11.136867192939620       -8.992849984863483      -15.323202415067090      106.489153684828949
S           1.964936987759970        3.279607108203329        9.135039531954362        3.019923734017698      -11.557294105801661     -182.282663835112572
S           1.950138980107533        3.292300615645664       10.900965944179617      -10.643141310979743       11.361979909816903      139.348634749628076
