# total energy = -9635.391070717733 eV 

 CRYSTAL
 PRIMVEC
        5.191810907663900        0.000000000000000        0.000000000000000
       -2.595905453831950        4.496238041309629        0.000000000000000
        0.000000000000000        0.000000000000000       20.000080883695549
 PRIMCOORD
12 1
Mo          1.339228142812994        0.706903993660247        9.980056642483087       -6.724286233873475        1.374898543748241       -3.660858129386177
Mo          0.003607270218645        2.956404036016501       10.128092304436580       -5.485397822547830        9.127886182973626      -25.650839659566518
Mo          3.920608467268572        0.732355808272888        9.818754865298331        2.001010265661782        1.197568451077432       13.711740934675253
Mo          2.575949690246162        3.040708142354056        9.915213520151818        3.012399397255825        2.841789657029295        0.613329733949086
S           1.322631480884465        2.261374233083171        8.635454456199570       -4.202820692573592       -1.330675035403263      -18.594107324475434
S           1.301462391089556        2.282382376739942       11.037044445647110        9.650201909690109       -6.675510842458884       36.332185780813035
S           0.029143711349081        4.505655986296131        8.722641575134151       -3.825956193304342       -7.368863112717280      -24.850223745728787
S          -0.053045770405784        4.503971243656594       11.271413692821966        6.177245996785145        2.915292387030471       23.302200407518423
S           3.843517863006125        2.281480040004190        8.655750283399810        4.809598995631535        2.420373833615601      -21.352140430406671
S           3.870857939245883        2.257821476879057       11.128290522349303       -7.388549544194580       -6.611499344016381       28.011684457992867
S           2.646851136725584        4.487545392306927        8.641477995214641        2.664839573575436        1.426671328566895      -24.159036859519883
S           2.556663670267463        4.510469314188627       11.333579917449242       -0.688285394995583        0.682067950554250       16.296065348355668
