# total energy = -9592.906390054877 eV 

 CRYSTAL
 PRIMVEC
        4.204419078754800        0.000000000000000        0.000000000000000
       -2.102209539377400        3.641132032678625        0.000000000000000
        0.000000000000000        0.000000000000000       20.000118839462914
 PRIMCOORD
12 1
Mo          1.045974537528803        0.641556091204366       10.154095880635978        3.721372411746842       -3.402770164573528       -6.029379473949528
Mo          0.002166537151282        2.457044010180359        9.981031900748643       -4.371589007893628        0.673027433581040       -4.671174339151849
Mo          3.150825292971477        0.626341980325984       10.020711526246300       -4.827749706504744        4.197469967395006       -4.154867540317194
Mo          2.060888508671398        2.457943755863212       10.040679573777030        5.925992798558551       -5.064726333831747       -2.666200201976046
S           1.033167456573008        1.841820195666234        8.226937329602535        0.357225890332110       -1.621633797482109      -12.418324028931988
S           1.020594561759900        1.828639341854338       11.635551112643061       -0.484519464924498        3.308890661587942       22.246702181721176
S          -0.021244088721132        3.648470005296776        8.231314129863520       -0.520918588634679        1.534911991783856      -12.939007361522343
S          -0.005797473467695        3.660925176375680       11.823317525606896        0.153796517815144       -1.309915939208024       15.418083877402106
S           3.158418053385800        1.841741152587554        8.192409799243986       -0.587003168481965       -0.973970565025129      -12.214922424341564
S           3.170252652208679        1.788733518610244       11.717956465260931       -0.565503080024716        2.190869349632987       15.905969432088654
S           2.084988238830820        3.606477108421989        8.467315320266460        1.725628796152725        2.352313874327293      -19.087238703284743
S           2.053750666401395        3.659879537350793       11.643109396820938       -0.526733655251569       -1.884466735298018       20.610358068042455
