# total energy = -9676.307563247452 eV 

 CRYSTAL
 PRIMVEC
        8.918435848296600        0.000000000000000        0.000000000000000
       -4.459217924148300        7.723588405521063        0.000000000000000
        0.000000000000000        0.000000000000000       20.000056148469234
 PRIMCOORD
12 1
Mo          2.273147874041949        1.229566913532955        9.970730120629378        0.019686945698160        0.990240770206339        0.114802378525343
Mo          0.024646097466768        5.075262447743727        9.815694707373346        0.798623050887407       -0.689992608257119       -0.233572999442032
Mo          6.624144146545509        1.305669710313640        9.902574542033111       -0.174392348886727        0.473868922432653       -0.160827716770447
Mo          4.518010928791026        5.102994324014005       10.004581827578759       -0.527106208266022       -0.640065619222285       -0.272578708701226
S           2.255433184916478        3.866857198791610        8.777524561893513       -0.362003002139238        0.247003934134215        0.943063577230560
S           2.188560077395195        3.840867093042503       11.216078206395895        0.128785586423216       -0.158575429395289       -0.763479911632438
S           0.102718976726341        7.663717161984278        9.071881996284466        0.902717294184371       -0.328840384533908       -7.152914776206726
S          -0.066524396679614        7.697037330157099       10.871361932143950       -0.892205848435672        0.332866990993081        7.177453652847421
S           6.689763321986521        3.836028841594803        8.973130831667033        0.257906959069258       -0.241382214561403       -0.298127258004279
S           6.661238596769329        3.922834653237028       11.032456530715317       -0.176739252900476        0.070625921389230        0.555936772220205
S           4.552483358875446        7.649882884296400        8.999393841553097        0.257376797360630       -0.197794026091313       -2.555321585737495
S           4.437974209957657        7.720161050624562       10.928814495878678       -0.232649972994906        0.142044000016229        2.645566318560681
