# total energy = -9693.705246508627 eV 

 CRYSTAL
 PRIMVEC
        5.956207443844399        0.000000000000000        0.000000000000000
       -2.978103721922200        5.158224551555346        0.000000000000000
        0.000000000000000        0.000000000000000       19.999943953578928
 PRIMCOORD
12 1
Mo          1.499547889718643        0.888142004366526        9.853965676856273       -2.304992956620611       -2.435932614234361        8.506735921046207
Mo          0.029778654736244        3.398360019882739       10.100203631275221       -2.935378625227903        3.467303854301298       -3.873023600126104
Mo          4.490843419887469        0.859598667054135        9.944560187697890       -0.490273082148391       -1.323577759067205        3.191849622540281
Mo          3.009495913254981        3.446500470926868        9.801015588301242       -2.058470076102711        1.000608491224135        9.254140774314529
S           1.471454841689006        2.535309134994153        8.560848024726390       -1.233220668985691        2.581428064675718       -8.040190532128852
S           1.426562906184751        2.611736210809842       11.382580454521621        4.776416837633453       -1.986618766399554        5.978489349240340
S          -0.058569174657555        5.160800015654065        8.604863206494910        2.868136277110030       -2.191739411331336       -6.881509005291513
S          -0.046372648674795        5.141902160676235       11.541390217976099        0.354632160304644        1.343803865339076        1.792901740411881
S           4.482295070964064        2.626483780440801        8.612856436884551        3.160271576520922       -1.617026892780273       -8.234201949559967
S           4.499602022933642        2.535962530950742       11.491323529444632       -1.968083161211206        0.088745264789862        3.011117187536656
S           2.990216861000746        5.154448911656693        8.434862920494938       -0.719553880056074        1.109977869232985       -5.255487104084310
S           2.974344759404389        5.125677451599203       11.521203439707422        0.550515598783536       -0.036971708639916        0.549177596100851
