# total energy = -9694.635803329791 eV 

 CRYSTAL
 PRIMVEC
        6.211059206962799        0.000000000000000        0.000000000000000
       -3.105529603481400        5.378932549709958        0.000000000000000
        0.000000000000000        0.000000000000000       20.000070264801529
 PRIMCOORD
12 1
Mo          1.614779122392620        0.859577675629855        9.850287116026811       -0.124753580644993        0.832220442231480        1.475793819063273
Mo         -0.075925851063675        3.618328315938504        9.925670120515798        1.033789106559631       -0.252607913087292        0.492152045177804
Mo          4.628428527025419        0.948121293472475       10.105034330506312        0.373067749535350       -0.601105161398939       -0.274816083671389
Mo          3.069016649721427        3.635568974085191        9.922060252904712        0.343424716619352       -1.186878056468789        1.312168997914476
S           1.575657523765724        2.721388634755085        8.035567786702853       -0.362624695161285       -0.244406861671147        3.637357207555243
S           1.612469229473551        2.640010715919538       12.009687933829332       -0.441314113886099        0.357000147373732       -4.030940569707719
S           0.033817975170071        5.340804720556176        8.012640903852191       -0.200212149694437        0.212178840482336        3.636503858034907
S          -0.010714077132011        5.421313712208669       11.929362789529364        0.154118162964267       -0.316708628849336       -3.885085421773456
S           4.612130707666349        2.700513264760483        8.153597165918688        0.138239794079831       -0.010356922379696        3.182026718525678
S           4.643679782908116        2.682002445005972       11.941555098752632        0.066944614238828        0.234951882683239       -3.871750903492881
S           3.152816881647690        5.349573493944566        8.259464670101368       -0.575751244692118        0.682695300005778        1.896327753698795
S           3.169933318610238        5.355458472543162       11.838475117942036       -0.404928617028759        0.293016931078634       -3.569737421324729
