# total energy = -9685.176795769738 eV 

 CRYSTAL
 PRIMVEC
        5.446609753057400        0.000000000000000        0.000000000000000
       -2.723304876528700        4.716900211391535        0.000000000000000
        0.000000000000000        0.000000000000000       20.000032712373070
 PRIMCOORD
12 1
Mo          1.288909697046417        0.826891765506742       10.032138281866166        0.454031052911523       -0.241881780128747        2.202101990140513
Mo         -0.003369817454217        3.122962939022694       10.032745034192656        0.018852108128852        0.412558883288186        0.737714875346521
Mo          4.089876148061037        0.785408751644531        9.907152749218856       -0.257572458398586       -0.488428571916726       -1.545891892737754
Mo          2.738116387091165        3.110406324897996        9.916990960415804        0.002733598101905        0.046369866222583       -2.251702706038466
S           1.328877464075327        2.371128179217959        7.767710821693527        0.501460214109637        0.169953594406734        1.497027026893192
S           1.393809222246401        2.328734492205037       12.328255751565017       -0.103096654824862       -0.217803131159458       -1.716022379120985
S           0.003160122978724        4.752767770598344        8.053095743602526       -0.367588212030855       -0.177562777610823        2.420148861988516
S           0.047854457951338        4.670076796666451       11.990223899782968       -0.404569690867147        0.022435713315491       -3.018449719917038
S           4.067505287822303        2.356227888916520        8.035184022768620        0.052234812263078        0.069117454490822        2.803684862720165
S           4.076707335000094        2.337277499602707       12.192790397091851       -0.069652758408068        0.478196090985612       -1.840531190635708
S           2.772641356993845        4.681716746369710        7.805892645384410       -0.293269413521831       -0.111152953068379        2.522715355104750
S           2.708499901897939        4.703822356713469       12.171929337076666        0.466437145425923        0.038197868285136       -1.810794569522843
