# total energy = -9673.17082806286 eV 

 CRYSTAL
 PRIMVEC
        8.727297025957800        0.000000000000000        0.000000000000000
       -4.363648512978900        7.558057406905104        0.000000000000000
        0.000000000000000        0.000000000000000       19.999988775209427
 PRIMCOORD
12 1
Mo          2.182834004755353        1.285490706357264       10.131277371306791        0.018043495823501       -0.154357789885917       -0.171673148968956
Mo         -0.067986516561914        5.007611324092654        9.974995045273856        0.014665321871194        0.310336918149430       -0.123159238862646
Mo          6.484100671322409        1.220073506039792        9.808863964547129       -0.009722373836101       -0.217691545232424       -0.405791222524610
Mo          4.325794734858510        4.976012399750767       10.163550042979081       -0.106184551100621       -0.089924373226218        0.381200666687292
S           2.205452540457528        3.721205124277366        8.215143454556790       -0.111039053147467       -0.040243181763376        2.658486889047421
S           2.190088134043329        3.825658651462244       11.601188082038380        0.373240784855383       -0.124614741012277       -2.188949763155484
S          -0.084328380243020        7.598278027978933        8.336203282522661        0.428544467222330        0.134085403736474        2.170708549410579
S           0.013671310791163        7.497844293804211       11.526493764982314       -0.321802500707400        0.024140612583148       -2.052504856994144
S           6.515802577769201        3.759022247750246        8.190535095132697        0.212042314843499       -0.333796959421843        2.756392227160887
S           6.491689928816182        3.793412161681033       11.756355932241098       -0.332889616711005        0.390981404591220       -2.728877040171466
S           4.343200456047080        7.604527645379221        8.558290300861019       -0.544925760904162        0.310512010352910        1.873105282464584
S           4.402457930123632        7.556131292451474       11.760032742478135        0.380027214680418       -0.209427758871127       -2.168938344093459
