# total energy = -9558.754736047307 eV 

 CRYSTAL
 PRIMVEC
        4.554734417592800        0.000000000000000        0.000000000000000
       -2.277367208796400        3.944513873995805        0.000000000000000
        0.000000000000000        0.000000000000000       19.999888929728577
 PRIMCOORD
12 1
Mo          1.164471144250285        0.619755424626784        9.823453516390428        2.396173057191609       -6.876619022005197       39.580842924630907
Mo         -0.011079846944236        2.661502578213575        9.975661809263777        2.996150532240383        2.312377168197614       -7.468924064683867
Mo          3.441371492768882        0.680029136121673        9.922163265215056       -6.127816002213346       -5.096017444610162        2.871694685474436
Mo          2.309053585192709        2.611604096248520       10.043164339752828       -3.941565898582881        9.993689361254614       -2.360135173636919
S           1.176478335121943        1.934887618468762        8.891626363881297       -0.470690780395629       14.228670969194541      -54.402470197225732
S           1.120853641047091        1.974204541434865       11.310587056990848       -1.413383347274322       -4.548446788702774       31.497749917551324
S          -0.046276557156185        3.944740699769801        8.586279701366525        8.500760417520400       -3.083466520144571      -38.750241506783155
S          -0.015430073786479        3.916454432616225       11.316856648916662        0.996056865264953        5.201651008057248       30.807714886073096
S           3.383356018598235        2.008849217835401        8.549896482838795        0.302790727000926        0.367319017409646      -29.591673821862901
S           3.439663467362285        2.001588060226875       11.150385205214622        3.476201417874898       -6.492586026810512       51.089016082598782
S           2.308941083252595        3.941300964337635        8.763984031089235       -7.774964667532053       -8.204180964310467      -48.670065869439377
S           2.261611471499063        3.976842467944995       11.404890100266456        1.060287421794629        2.197609756690881       25.396492137303390
