# total energy = -9488.71273642018 eV 

 CRYSTAL
 PRIMVEC
        4.936959144545499        0.000000000000000        0.000000000000000
       -2.468479572272750        4.275530043155016        0.000000000000000
        0.000000000000000        0.000000000000000       19.999922649061634
 PRIMCOORD
12 1
Mo          1.247237318476220        0.746246553189689        9.954089568639272       12.211082480055264      -12.493875157736575        9.771188565411192
Mo         -0.030098665120636        2.880559652933331       10.079327386042616       14.976578730465809        4.728515878794538      -12.857737068291611
Mo          3.662621869933040        0.717951359244556       10.041501886164852       -6.350003380441435      -13.938087845455316        5.558133335023038
Mo          2.416766406321379        2.854903757346872        9.925982966533461       -8.206043986493160        2.338293128306501       -0.246655292389842
S           1.248155592877105        2.100019994133800        8.990000680588341      -11.683956988506919        7.023753037223024      -57.584118192086606
S           1.235720380183824        2.117950536050875       10.909708115885907        1.974259210873156        1.049601655173743       59.639900435744131
S           0.016182364683991        4.279953064852614        8.961621064641836        1.008093747200503       -4.522870214362747      -50.727142664116741
S           0.046421239444332        4.235724328964374       11.051083865340939       -7.202586454583622        7.222934174089334       54.406163845676822
S           3.695771082109091        2.102190775069656        9.098992446534730        5.602612925357247        2.754776030991909      -66.776262699516451
S           3.641769141898309        2.165754617751594       10.718850212316923       -5.158043536304836        1.648065778225921       72.301060381614136
S           2.439049371420285        4.306501068956493        9.264885628797492       -0.531462687408109        4.584926902198705      -63.993639551968762
S           2.473714723749625        4.259983065112928       11.039203566855505        3.359469939786107       -0.396033367449038       50.509108904900721
