# total energy = -9697.07458348284 eV 

 CRYSTAL
 PRIMVEC
        6.402145111576700        0.000000000000000        0.000000000000000
       -3.201072555788350        5.544417720253212        0.000000000000000
        0.000000000000000        0.000000000000000       20.000000427745366
 PRIMCOORD
12 1
Mo          1.566764962430608        0.967883340327788       10.125034748116287        0.350024998492377       -0.958973570698003       -0.829851683831100
Mo         -0.001154306763617        3.688200893681531       10.095476044136136        0.613738539534303        0.152892517539909       -0.808712835529341
Mo          4.811423962353083        0.915083569163593        9.907878467433184        0.242042474148093        0.026789364242838        1.770345185193842
Mo          3.171598360123673        3.663154421576021        9.857142107638451        0.472992690083961        0.668972030753600        1.501958662069323
S           1.626196075501374        2.825112986256120        8.169983525955619       -0.353038846964021       -0.401719107519158        3.013950801596202
S           1.650697725057889        2.724073691890705       11.767254752617427       -0.191483250563543        0.580071471263441       -2.564279827372800
S           0.011998900368117        5.594819247858610        8.336943787891405       -0.621601747844174       -0.339774776941527        2.297934246849195
S           0.081142707787657        5.497961194465566       11.871993206428311       -0.519812499560714        0.301612904116725       -3.288580994426011
S           4.871256489922345        2.753509474684713        8.260165422426311       -0.346934531112307        0.265782765790245        2.236256796898894
S           4.815525176511559        2.743681541723931       11.689220286281440       -0.350947510718640        0.046623119997073       -2.469813341273345
S           3.149343863501322        5.583456720714584        8.168235740340158        0.496540406013329       -0.278283474943237        3.023476228842191
S           3.190914912354323        5.566934064610627       11.976485817866910        0.208479278491337       -0.063993500712336       -3.882683239017052
