# total energy = -9690.567039731732 eV 

 CRYSTAL
 PRIMVEC
        6.402145111576700        0.000000000000000        0.000000000000000
       -3.201072555788350        5.544417720253212        0.000000000000000
        0.000000000000000        0.000000000000000       20.000000427745366
 PRIMCOORD
12 1
Mo          1.557928721747610        0.903571231823956        9.836625793413891        0.532406025579280        0.187247099103142        0.740986091359551
Mo          0.021898537354148        3.718629008967833        9.932353868194740       -0.195584933268555       -0.104575296913279        0.407773801057698
Mo          4.799468596571725        0.940465513672950        9.893428825916356       -0.010979900953897        0.022220768995213        0.487260262118470
Mo          3.136309096054151        3.749539845995547        9.878979824614037        0.587579867178595       -0.751822267582545        0.846514239529946
S           1.586232605285890        2.728965570970461        7.964192973489098       -0.062692521931708        0.212539823527396        4.025843098303621
S           1.618996223108895        2.766649877526223       12.045526550750152       -0.160785807770202        0.138005566477232       -4.458066044461613
S           0.013815829150783        5.564032612446060        7.977547207977335       -0.092497534419207       -0.070660888407839        4.057141408174103
S           0.014598171283417        5.552629751787831       12.097782139579865        0.077531907564658       -0.101309737329730       -4.444266413411441
S           4.799061420142629        2.798611306566748        7.941478162633224       -0.031456689895949       -0.049835714831845        4.171338034524117
S           4.842598567759395        2.790163676092023       11.912501499192791       -0.053550189227840       -0.020876595662185       -4.506942223165137
S           3.203816515183172        5.507572094707065        8.124964281745523       -0.278702050724830        0.362609268535428        3.043049274619439
S           3.270044785718899        5.500705153860388       12.078125633443790       -0.311268429240777        0.176457974089013       -4.370632042869617
