# total energy = -9680.367091841892 eV 

 CRYSTAL
 PRIMVEC
        5.191810907663900        0.000000000000000        0.000000000000000
       -2.595905453831950        4.496238041309629        0.000000000000000
        0.000000000000000        0.000000000000000       20.000080883695549
 PRIMCOORD
12 1
Mo          1.324457440780690        0.711918244634869        9.876633692478059       -3.152122461411830        1.770019683388254        4.388695079085871
Mo         -0.032663759144477        2.974871307415061        9.827862859173646        0.320896700659149       -0.624954210753385        6.016804202771560
Mo          3.830617251262761        0.770835433996130       10.040652344310795        3.400777815844064       -1.704766084453811        2.643259523774161
Mo          2.600695418575361        2.972248404544509        9.842351126692572       -0.284294202598083        0.153095634780363        3.266509606591182
S           1.228060568477004        2.282450908643924        8.264248802380145        2.131298662553925       -1.605471835792331       -4.877428069752846
S           1.255079790802668        2.243612009605871       11.898330051733288        0.594484567801870       -0.120858871836899        0.082435260593385
S           0.010547163858919        4.496012197535145        8.342956655740329        0.656925635732104        1.024218942098655       -6.586024585407012
S          -0.032362634111832        4.518552963771859       11.794479296509468       -0.421695816673004       -0.495347156503271        0.543027257481996
S           3.953282610034864        2.222635535995637        8.113809331976402       -1.806797530763230       -0.224645868168872       -1.987305508360632
S           3.952373004763842        2.208129616319624       11.785276811675635       -0.654224433544500        1.134453753818097        0.866242322897059
S           2.600533953256133        4.471054124139823        8.268247015960135       -0.718711072063406        0.793157911567045       -3.678913966510364
S           2.599480015641876        4.485204923949753       12.042411111318415       -0.066538379757920       -0.098901641033414       -0.677300866053929
