# total energy = -38802.65064209354 eV 

 CRYSTAL
 PRIMVEC
       12.740577282373799        0.000000000000000        0.000000000000000
       -6.370288641186900       11.033658440967770        0.000000000000000
        0.000000000000000        0.000000000000000       19.999979849788435
 PRIMCOORD
48 1
Mo          1.590438113601927        0.918231241548875       10.052281076234266       -0.123751364185133       -0.066991922558123       -2.378378701375703
S           1.626462095867839        2.819566196053016        8.438992737276401       -0.670466613688736       -0.886266083259769       -0.153589286807795
S           1.554414131336015        2.694786256207175       11.560989660627493        0.457042844499720        0.964714846621210        0.295730474566924
Mo         -0.002134046694798        3.676645214761953        9.999991198951946        0.021098224853668       -0.002364130412624        0.336026363968646
S          -0.064351381795542        5.531386604086725        8.465668957990236        0.980204464534043       -0.271873969009981       -0.604741474223924
S           0.060083288405947        5.499798890830536       11.587669703514512       -0.768729335301229        0.100842053455825       -0.219330367119326
Mo         -1.594706206991522        6.435060462032760        9.947700047611900       -0.134005442392447        0.010875771229361        2.611400456053769
S          -1.600617834850544        8.203971130321635        8.426085258431627        0.109930650079623        1.108347789100736       -0.056034647322150
S          -1.588794579132501        8.344038488848597       11.548080907724991       -0.187405222018179       -1.002968250759432        0.381618471137593
Mo         -3.187277093230519        9.193475709303566       10.025301629781110        0.028088029029587        0.016978544418489       -1.629708864787087
S          -3.122199498529882       11.050520595000991        8.418568317835028       -0.760055457802559       -0.252614083737635        0.382366405381239
S          -3.252357236046612       11.014320792768583       11.540570337417032        0.875150170887897        0.204985147734670        0.748573677287439
Mo          4.775582434195377        0.918229967491147        9.999991198951946       -0.032782865498810        0.045317513228688        0.919741090038708
S           4.713365099094633        2.772971356815919        8.465668957990236        1.013592825097751       -0.275706199983352       -0.562708803861107
S           4.837799769296121        2.741383643559729       11.587669703514512       -0.780267165890297        0.096107621980235       -0.189842886014055
Mo          3.183011547956380        3.676646488819681        9.947700047611900       -0.059390195556533        0.069432414768740        2.751994353239416
S           3.177099920097359        5.445555883050829        8.426085258431627        0.106451174617521        1.120473888355827       -0.029751790628292
S           3.188921901757673        5.585624515635518       11.548080907724991       -0.167728303626826       -0.994397217433144        0.395017267025907
Mo          1.590438113601927        6.435060462032760       10.025301629781110       -0.031692460161134       -0.013791146405950       -1.279006637419577
S           1.655516982360292        8.292106621787912        8.418568317835028       -0.933006188502926       -0.381506113879266        0.091135363356012
S           1.525359244843562        8.255904271440048       11.540570337417032        0.949949251681943        0.260733631147168        0.492096766435148
Mo         -0.002134046694798        9.193474435245838       10.040041203639088       -0.027026934281040        0.059274495862603       -2.056924071081383
S          -0.027719673993261       11.093690767064587        8.461789452207752        0.064442929745644       -0.870877509746300       -0.471229683858909
S           0.023451580603665       10.971150620704986       11.583790197732029       -0.062182414836695        0.896524532344409       -0.138657855640563
Mo          7.960726754788827        0.918231241548875        9.947700047611900        0.009701033670331       -0.069720121340978        2.140953416346685
S           7.954815126929805        2.687143183895479        8.426085258431627        0.116803469009459        1.071282492263953       -0.063024451498070
S           7.966638382647849        2.827209268364712       11.548080907724991       -0.170857080461107       -0.982203241024281        0.362068822409562
Mo          6.368154594492102        3.676646488819681       10.025301629781110       -0.027318497509742       -0.016134450873667       -1.277823929437188
S           6.433232189192738        5.533691374517106        8.418568317835028       -0.932943967778635       -0.375414910659531        0.090092266337631
S           6.303075725733737        5.497489024169242       11.540570337417032        0.952941245766957        0.251481512289282        0.493786753297810
Mo          4.775582434195377        6.435059187975031       10.040041203639088       -0.024725538813569        0.051965360531438       -2.056806571614437
S           4.749996806896914        8.335280616024694        8.461789452207752        0.419109542848036       -0.909641020979535       -0.538027745152093
S           4.801168061493840        8.212732825318724       11.583790197732029       -0.241329506923057        0.912508830726398       -0.144665755080669
Mo          3.183011547956380        9.193474435245838        9.955306172249477       -0.069934551440394       -0.003206681294860        2.350236679155615
S           3.130313972201026       10.984660728855216        8.448387638964423        0.754996295852674        0.685841560349364       -0.588668729853686
S           3.235706575596278       11.080180658914356       11.570389658546429       -0.810315661955910       -0.625115418993594       -0.166147845807751
Mo         11.145871075382276        0.918231241548875       10.025301629781110       -0.063955448368555        0.088659647016354       -2.058822317393118
S          11.210949944140642        2.775276127246300        8.418568317835028       -0.730893221392445       -0.252378827693312        0.299015060322364
S          11.080790932566183        2.739075050956163       11.540570337417032        0.850915712997450        0.209258065986697        0.615244949549263
Mo          9.553298915085552        3.676645214761953       10.040041203639088       -0.024834296525862        0.060337647494599       -2.102480954121289
S           9.527713287787089        5.576865368753887        8.461789452207752        0.292508623756638       -1.013526747716995       -0.698112926997944
S           9.578884542384015        5.454318852105645       11.583790197732029       -0.173599163207233        0.962962896144688       -0.254356264017781
Mo          7.960726754788827        6.435059187975031        9.955306172249477       -0.079423211894757        0.014910091001463        2.384110207102533
S           7.908031727148929        8.226250577815323        8.448387638964423        0.617511635108555        0.762470496080512       -0.408143011636548
S           8.013421782428725        8.321761589470366       11.570389658546429       -0.701912762057016       -0.681927825369380       -0.045308771474035
Mo          6.368155868549830        9.193475709303566        9.981575968548004        0.009290942532960        0.028747774395416        0.914480353510955
S           6.419243035336692       10.994260753837485        8.411651458428427       -0.329555151531961        0.554065779614151        0.404429822792708
S           6.317066153647511       11.070580633932089       11.533649655837246        0.490359471253191       -0.660474788120996        0.712175324908551
