# total energy = -9423.856310511155 eV 

 CRYSTAL
 PRIMVEC
        4.013280256416000        0.000000000000000        0.000000000000000
       -2.006640128208000        3.475601034062666        0.000000000000000
        0.000000000000000        0.000000000000000       19.999977480556058
 PRIMCOORD
12 1
Mo          0.977798410969374        0.571453785007254        9.924954847291973       -4.202164289643367      -12.575315400962168       17.789557878154532
Mo          0.005857783862265        2.329504511556411       10.050656804843305       -5.517569793662694        1.051694019860848      -12.451691049329925
Mo          2.964395013592755        0.586562581188583        9.883270510580683        7.483943684728916       -2.867808204200132        8.211809430796876
Mo          1.988100780063486        2.297335261005057        9.928173096729592       11.308864237217376       19.053283671331211       14.589031292790411
S           1.026271612562417        1.749811060854709        8.865805640212944      -11.860022097857435        1.250522401215889      -84.237333977090074
S           1.023773345602798        1.740746666067568       11.277788278303037        3.215787117882976       -3.730196184626758       59.674811918500801
S          -0.018380422246360        3.468945008757400        8.672102260668870       -3.029537350141505       -6.894235971623745      -64.164651155798865
S          -0.027092451026987        3.461040451964363       11.273898607078516        1.134411073486559        8.049541124281793       59.734275133419736
S           2.962816590467907        1.761832440534778        8.629872920498761        7.327436194529793        3.569099016124670      -58.150253249550616
S           2.991689332616640        1.752652061948226       11.156087962495375       -4.863753908592980       -6.641970272520052       69.867933099291903
S           1.997698539796705        3.496474104676285        8.644525808042960        0.472907843641747       -0.983549471240757      -62.265214936989842
S           1.953055612880384        3.499304269913110       11.279352253618962       -1.470303225810247        0.718935786580060       51.401725872915492
