# total energy = -9672.999118847045 eV 

 CRYSTAL
 PRIMVEC
        8.727297025957800        0.000000000000000        0.000000000000000
       -4.363648512978900        7.558057406905104        0.000000000000000
        0.000000000000000        0.000000000000000       19.999988775209427
 PRIMCOORD
12 1
Mo          2.215070021780134        1.330569813685444        9.920167547167681       -0.236147703297607        0.132504174586106       -0.503987866756348
Mo          0.061647880731961        5.040680797983413       10.187686255634070        0.025688931598354        0.018214474260086       -0.078486044373929
Mo          6.581455415106373        1.229998188217712       10.064938568423377       -0.290368179418944        0.135151126472779       -0.193460172667149
Mo          4.274865720333831        5.046067285707833       10.168422492908672        0.580811692194158        0.001325661382000       -0.013405480759519
S           2.188382820204458        3.711974262213010        8.172487044883017        0.023912812741323       -0.455616138718355        2.841558257641437
S           2.137235623254129        3.727136195336207       11.602897759525765       -0.049001905704261        0.403706571150434       -2.394499782506959
S           0.062521483164259        7.526512591804779        8.324883978279994       -0.023380079928386        0.255381106195564        2.639757936814996
S           0.049646101861864        7.580085104598621       11.844188322240042        0.332036524301100       -0.297281107576009       -2.622987908956011
S           6.467519679702792        3.781242818708037        8.505695245334085       -0.009567593356666       -0.260890211399619        1.971367746966646
S           6.446819403886923        3.814499929484855       11.572921239701005       -0.017267022322020        0.101517739668372       -1.580769436917548
S           4.439419778487968        7.510316473984006        8.424347237025428        0.001103775080086        0.291025096570032        2.328765644177064
S           4.452221850495345        7.512861353796775       11.768480765999263       -0.337821251887137       -0.325038235480958       -2.393853149773110
