# total energy = -9693.662839724666 eV 

 CRYSTAL
 PRIMVEC
        7.039168683922899        0.000000000000000        0.000000000000000
       -3.519584341961449        6.096096059494329        0.000000000000000
        0.000000000000000        0.000000000000000       19.999981709846463
 PRIMCOORD
12 1
Mo          1.808367362317871        1.037989478879455       10.140382850822865       -0.302080587990630       -0.027539098259500       -1.519233911925133
Mo          0.008674367569198        4.075808892612011       10.059742838296712        0.092973960047765       -0.028530773191690       -1.112126541104469
Mo          5.260374980996793        1.068081221086357       10.132989611954139        0.224556136628469       -0.518544688025679       -1.737660535879656
Mo          3.456664732680204        4.105515592291902        9.999117998006426        0.622530687831211       -0.425638605131686       -0.453653871909313
S           1.757942981367458        3.001694400046663        8.115027482488124        0.024759991611317        0.253775965775117        4.059490369071300
S           1.805646019704667        3.040457694155290       11.852877439582574       -0.165273927452937        0.116659744278556       -3.309771521924391
S           0.041051727847770        6.053369713416654        8.183891669722939       -0.103255806181622        0.133063903994293        3.862816316017224
S          -0.051271896859958        6.115945811266123       11.745882075586946        0.374424007058634       -0.055636383264602       -2.426177073152667
S           5.237194294603767        3.095073900056980        8.339876832091198        0.061033131210330       -0.048469944222617        2.959793060420017
S           5.351480125605333        3.032021954404477       11.615498369722115       -0.438106918370377        0.372567155526283       -1.530710036010772
S           3.502924741437209        6.080554278957095        8.379933221487061       -0.020960927883538        0.235988037719984        2.775151518424165
S           3.575301473845304        6.111718790471427       11.628891795977015       -0.370599746508621       -0.007695572308889       -1.567917514915873
