# total energy = -9692.838000265929 eV 

 CRYSTAL
 PRIMVEC
        7.293967529316399        0.000000000000000        0.000000000000000
       -3.646983764658200        6.316758229576235        0.000000000000000
        0.000000000000000        0.000000000000000       19.999949555872629
 PRIMCOORD
12 1
Mo          1.830662581807171        1.066380970373069        9.989324126550004       -0.049530267639872        0.058294648010237        0.229291082324921
Mo         -0.051713500386100        4.237606950170571        9.986320470721433        0.412811365731383       -0.028460324933609        0.461041425921919
Mo          5.433575465256487        1.032802461455108        9.904110162698506        0.284267977334126        0.260078770879527        1.073507525933430
Mo          3.629795530175365        4.184478420083783       10.054802073060678       -0.020695589918793        0.381939859176286       -0.135548876309465
S           1.737684918917469        3.207347165796183        8.278930316540228        0.165212735170370       -0.169187662432922        2.903278902144138
S           1.872150669113922        3.138793353178397       11.702049088582154       -0.153475901107744        0.022743731611774       -2.821018219533371
S           0.021102906855818        6.357445439248267        8.318291482915429       -0.196461422727677       -0.096844243364918        2.531115152884022
S           0.047803933790387        6.292296450673167       11.788850949164784       -0.219751514005229        0.049885594255450       -3.394338999321679
S           5.433037170452824        3.190987526024679        8.501408725929178       -0.065094961798544       -0.087573612556004        1.115867497874852
S           5.455673998680058        3.183522150258424       11.576662139769439       -0.057709207558954       -0.115175959981519       -1.836575546655479
S           3.635734278537735        6.373252925677801        8.376075752476181        0.029432459473047       -0.202345652050494        2.021291907786739
S           3.683581246736545        6.328075549594722       11.582274847783248       -0.129005158731251       -0.073355148613808       -2.147912367270890
