# total energy = -9638.98262452435 eV 

 CRYSTAL
 PRIMVEC
        4.745873239931600        0.000000000000000        0.000000000000000
       -2.372936619965800        4.110044872611764        0.000000000000000
        0.000000000000000        0.000000000000000       20.000016294860590
 PRIMCOORD
12 1
Mo          1.117646029194032        0.724300936258641        9.969305669679207        8.840866352696997       -2.431607759675281        1.659249567751565
Mo          0.033272842697836        2.757970265096099        9.864746014219005       -6.203963627217747       -0.575456339027814        3.673478651999993
Mo          3.553432248476246        0.659458070181456        9.991236349920930       -6.076406257323200        4.632735301282477        0.724624354864921
Mo          2.319994031037743        2.767748662319654       10.005609701615386        3.953306589301971       -6.061095588270310       -2.338149660686029
S           1.151992863006065        2.057481273231490        8.332039674492950        1.952593286187942       -0.742417425128673      -13.126447807669562
S           1.209980315188169        2.027140905608608       11.481528820501714       -2.874763041357443        1.289111591576937       17.033053629624312
S          -0.044913995168065        4.110251792685025        8.392566643445743       -0.035981319259880        2.606664481915593      -13.380416092047033
S          -0.002885965517202        4.069844953332924       11.556329477810925       -1.005611860210502       -0.219999625571100       10.930077837476743
S           3.525526039238124        2.055752826197508        8.347486542714281       -0.863554490451864       -0.669076931809429      -10.020333458103963
S           3.518504994366970        2.071972797169622       11.419145740524787        3.439032248424010        0.347880954608650       15.900237412140962
S           2.352129762507292        4.077807104867557        8.600072357464567       -0.354538314997346        0.910550677684251      -24.279942011234354
S           2.397431495519059        4.097639159962583       11.578806882649888       -0.770979565792939        0.912710662414697       13.224568090103306
