# total energy = -38802.62022260986 eV 

 CRYSTAL
 PRIMVEC
       12.740577282373799        0.000000000000000        0.000000000000000
       -6.370288641186900       11.033658440967770        0.000000000000000
        0.000000000000000        0.000000000000000       19.999979849788435
 PRIMCOORD
48 1
Mo          1.590438113601927        0.918231241548875        9.950021380792748       -0.042533264371885       -0.123447459655745        1.612906955234663
S           1.593704797617128        2.687987884169301        8.422836411224623        0.005044249544890        1.008700013596693       -0.044189312657661
S           1.587171429586727        2.826364568090891       11.544830786460258       -0.017363181623196       -0.952497987383992        0.388427012459690
Mo         -0.002134046694798        3.676646488819681       10.031671918422298        0.021353535511605        0.022560668984935       -1.924882695270995
S           0.060902507525203        5.542923196815915        8.421324104701204       -0.945927273210527       -0.496556861080910        0.078739812369281
S          -0.065170600914798        5.488257201870433       11.543319753994568        0.888543310346730        0.435260448789283        0.489221500485788
Mo         -1.594706206991522        6.435059187975031       10.034631554524992       -0.086830306300116       -0.004222010386698       -1.510918446367214
S          -1.628481477367095        8.329966521240214        8.463704360973294        0.536079105195891       -0.831631659344595       -0.562283543208308
S          -1.560932210673678        8.218046920103202       11.585700010266656       -0.340486715724839        0.776140029252620       -0.157856805740772
Mo         -3.187277093230519        9.193474435245838        9.951552798182089       -0.060279283426772        0.017688426318353        2.689963119336122
S          -3.233968760854963       10.978001229109720        8.444704338072087        0.699034153672053        0.807033133083918       -0.577823297655178
S          -3.140587973721532       11.086840158659854       11.566699987365453       -0.798445387579618       -0.711759834452129       -0.145702938559138
Mo          4.775582434195377        0.918231241548875       10.031671918422298       -0.048908060396963        0.077184294262008       -2.199345766320684
S           4.838618988415378        2.784509223602836        8.421324104701204       -0.955200218013320       -0.493273046656764        0.049233305092120
S           4.712544605917648        2.729843228657355       11.543319753994568        0.914572399045236        0.420979249901935        0.458409386440241
Mo          3.183010273898652        3.676645214761953       10.034631554524992       -0.022763786225389        0.057344624967861       -1.814882111154152
S           3.149235003523079        5.571551273969408        8.463704360973294        0.570668428582585       -0.839075520541580       -0.561024730538357
S           3.216785544274225        5.459632946890124       11.585700010266656       -0.337878330402809        0.791124939389491       -0.174028537626927
Mo          1.590438113601927        6.435060462032760        9.951552798182089       -0.064013812436381        0.009674551295943        2.497228512305126
S           1.543747720035212        8.219588529954370        8.444704338072087        0.601589300340426        0.908963534993971       -0.288342406333456
S           1.637128507168643        8.328422363273591       11.566699987365453       -0.812411626189048       -0.833383866931548        0.146635992313070
Mo         -0.002132772637069        9.193475709303566        9.988796053693925       -0.000956965024011        0.026229891945082        0.544327979152194
S           0.054237911548793       11.002800762789860        8.411520230482418       -0.452969443942113        0.395147107793539        0.385497496209398
S          -0.058506004938389       11.062040624979714       11.533519701948967        0.646147052245644       -0.512294076338753        0.682340744721492
Mo          7.960726754788827        0.918229967491147       10.034631554524992        0.005344297417813       -0.052889158309857       -0.851698871370137
S           7.926951484413254        2.813137300756330        8.463704360973294        0.568211738414819       -0.821647804200214       -0.519263825901058
S           7.994500751106671        2.701217699619318       11.585700010266656       -0.346125404586095        0.752396909395727       -0.134303433381923
Mo          6.368155868549830        3.676646488819681        9.951552798182089       -0.065199605743942        0.016845361215255        2.516560388498138
S           6.321464200925386        5.461175830799019        8.444704338072087        0.604804723389939        0.895794338720499       -0.293638366990250
S           6.414844988058817        5.570007116002785       11.566699987365453       -0.810961009137604       -0.822358714541803        0.144016037021647
Mo          4.775582434195377        6.435060462032760        9.988796053693925       -0.004511516731953        0.018115486744168        0.566897389891781
S           4.831954392438968        8.244381693345868        8.411520230482418       -0.653571373049876        0.329619943360561        0.222053166583131
S           4.719210475951786        8.303627925824363       11.533519701948967        0.940094465973901       -0.501563315392450        0.598498575849926
Mo          3.183010273898652        9.193474435245838       10.053851989413181       -0.077005602512495        0.033401987416548       -2.833966043725791
S           3.202416721215164       11.101170759987069        8.446579751048054       -0.568333094538229       -0.904255843003200       -0.145387721170788
S           3.163602552524412       10.963670627782506       11.568580496572331        0.401694682028218        1.056443877962295        0.276423538085714
Mo         11.145871075382276        0.918231241548875        9.951552798182089       -0.039618660526589        0.027508245007786        2.704964998761436
S          11.099180681815563        2.702760583528213        8.444704338072087        0.561585231277837        0.865737100900234       -0.361823024837570
S          11.192560194891264        2.811593142789707       11.566699987365453       -0.669970390556995       -0.765109734654256        0.021564623175418
Mo          9.553300189143279        3.676646488819681        9.988796053693925        0.008071724869375        0.019228517799769        0.557302799939864
S           9.609670873329144        5.485966446075062        8.411520230482418       -0.497680690774611        0.434195240273840        0.423565523726902
S           9.496926956841961        5.545213952611285       11.533519701948967        0.777434323162044       -0.605911583795196        0.785628689706984
Mo          7.960726754788827        6.435059187975031       10.053851989413181       -0.081061519560797        0.044876311729170       -2.862511215101615
S           7.980134476163067        8.342759334889447        8.446579751048054       -0.373461385605141       -1.028458178884227       -0.363869623867965
S           7.941319033414587        8.205252832396242       11.568580496572331        0.240841254214675        1.155516754542724        0.083335661322587
Mo          6.368155868549830        9.193474435245838        9.985122945263416       -0.012663717166216        0.002502455824477        0.858406111182438
S           6.302390282675945       11.028771155522250        8.462797231870788        0.730715043863794       -0.133794868949496       -0.883223695530288
S           6.433920180365987       11.036070232247322       11.584790333048694       -0.534697907960806        0.027918079034727       -0.571183163665356
