# total energy = -9691.421266409836 eV 

 CRYSTAL
 PRIMVEC
        6.784369838529400        0.000000000000000        0.000000000000000
       -3.392184919264700        5.875433889412424        0.000000000000000
        0.000000000000000        0.000000000000000       20.000016987341937
 PRIMCOORD
12 1
Mo          1.635472758251122        1.016245005289980       10.095824148900519        2.997710164114551        0.729682745483513       -1.718840052333811
Mo          0.014502947403824        3.901177517341481       10.184466011462808       -1.685790306207670        0.025540835990125       -3.010160993843937
Mo          5.068367288731918        0.995322687144939       10.150136421642866       -0.675433215883478        1.088074374509569       -1.997390922125240
Mo          3.406327616630098        3.911006033926558        9.828223500300517       -1.209842131719891       -0.767405730802677        2.135977043955567
S           1.660376823054396        2.949533960090962        8.800158765877852       -1.095768147045441       -0.280465571170745       -5.592160615007667
S           1.720759749928259        2.959124345294707       11.214933769682281        1.476247618973907        0.547031752444108        6.145757425195758
S           0.000033921849193        5.913949435422738        8.773737715978683       -0.041749591778337       -0.489014783699301       -3.566173613641274
S          -0.055220021426742        5.879898004766176       11.216929052851793        0.064330829597748        0.426574229989928        6.037853576643347
S           5.001860111204814        2.976951633919411        8.671992521510257        2.583332738748227       -1.390874357486009       -3.687752137574414
S           4.988258128115546        2.993128285362401       11.266254135325836       -0.324305984973601        0.242492931623125        4.738774842100041
S           3.414616759698814        5.863877393829473        8.850427554196434       -0.964921563407697        1.683146953867031       -6.938484419680524
S           3.411223896342565        5.905310897307339       11.063351272817002       -1.123810667528750       -1.814783380748666        7.452599866312156
