# total energy = -9698.14518674745 eV 

 CRYSTAL
 PRIMVEC
        6.338432170797099        0.000000000000000        0.000000000000000
       -3.169216085398550        5.489240720714558        0.000000000000000
        0.000000000000000        0.000000000000000       19.999965611692456
 PRIMCOORD
12 1
Mo          1.493914585983424        0.967874155578198       10.155166640683852        1.165228329740724       -1.234104100426449       -6.633868208619823
Mo         -0.009394190320338        3.662507738306919       10.102177347735990       -0.805311264527818        0.511737175145306       -5.790361646911180
Mo          4.739462508485232        0.866161334533416       10.107431908005580       -0.438676160864509        1.309572696782700       -5.743563948931490
Mo          3.181716107482579        3.678742998469199       10.078185748126305       -0.856287007010514        0.270348018602268       -5.063568308450730
S           1.588662737758934        2.728615819126016        8.524942803181004       -0.124585687533580        0.320976662003175        0.085345493561355
S           1.517563910255886        2.770255515428851       11.482964864021461        1.126830686650737        0.761286502545968        4.257545619360462
S          -0.015037930325216        5.473027645064876        8.411635722009400       -0.281857567043931        0.190278173973661        1.619700327041334
S          -0.081235882073804        5.515981932199933       11.475058937574827        0.655501501055049       -0.215014254314899        3.675123901647669
S           4.762306851872002        2.697762232848227        8.212813049362270       -0.039819720883595        0.114121035883314        3.002169487429020
S           4.723726716778011        2.786698676166333       11.418146155113240        0.199695357728219       -1.121570721454277        4.093446943687415
S           3.151690954289513        5.469054081937003        8.271771243885375       -0.021126764111503        0.120538255129499        2.666048763932214
S           3.144388446585537        5.526775648343584       11.497451350747818       -0.579591703199281       -1.028169443870266        3.831981833364184
