# total energy = -8994.712346057035 eV 

 CRYSTAL
 PRIMVEC
        3.822194351802100        0.000000000000000        0.000000000000000
       -1.911097175901050        3.310115863519414        0.000000000000000
        0.000000000000000        0.000000000000000       20.000094431321056
 PRIMCOORD
12 1
Mo          0.975044454680762        0.532347967149728        9.997910609017870       42.242607971672996      -14.212061378244469       18.319910619832214
Mo          0.038957715930743        2.176896011100285        9.838219711219015        6.275148763794301       53.154341494122029       31.899200344670138
Mo          2.859412261040790        0.540147154724580       10.023560973093378      -52.129992711255731      -44.259066717578662      -29.053251412199298
Mo          1.942245384332191        2.196044058144508        9.816376252717900      -41.978775902722404       25.718196678936593       44.932593202506183
S           0.988093426197814        1.626529073117856        9.097215478868364       -1.836618741207879      -31.493979650191811     -180.906373038380707
S           0.977335095755797        1.661965019172848       10.825444734860099        3.804916332518502       19.647828402973925      151.174943499337076
S          -0.040660503514471        3.340059698510301        8.985488915770837        7.210787248889337       10.623211138813900     -140.309696571246292
S           0.026895252775891        3.304152858111167       11.077757339508436       -5.573816299979949      -16.840155243248798      114.078189201326950
S           2.846560896971725        1.661460489518411        9.139218719258622       32.480120023245298      -46.670052163807966     -198.638857543072021
S           2.850489348326508        1.638575865275866       10.714728759949189        6.231827455951542       43.934187376344035      180.655926395576017
S           1.920921362043487        3.331587040290662        9.120590490646245       -8.062277603699970       33.355206687856743     -169.548423591679438
S           1.895355468463153        3.299313195622915       10.751223453839630       11.336073205683530      -32.957656883085939      177.395838893329227
