# total energy = -9660.01140056706 eV 

 CRYSTAL
 PRIMVEC
        8.536211121343900        0.000000000000000        0.000000000000000
       -4.268105560671950        7.392572236361851        0.000000000000000
        0.000000000000000        0.000000000000000       20.000043889919510
 PRIMCOORD
12 1
Mo          2.134212407483944        1.247129347753886       10.191016254315377        0.353109295222103       -0.135335474651773        0.642178809854297
Mo         -0.014616554303077        4.949541904656600        9.825954942257759       -0.044775781550667        0.466619436721470       -0.741990364702858
Mo          6.454190815898077        1.197324823966405       10.116523300722745       -0.125506399986826       -0.327071721879375        0.077378412637379
Mo          4.296015556554296        4.903250031745553       10.071458081349835       -0.092052476263226        0.022776898857367        0.331156692406374
S           2.146845146322421        3.650139360858940        7.698842955184549       -0.271782180586130        0.269281267424239        3.352129694092796
S           2.204856383481962        3.701192732333474       12.287833228118938        0.281125573647004       -0.365618746129746       -3.440571568574132
S          -0.010513197617047        7.368529997738587        7.795041786416534        0.066742782550529       -0.543067366709225        3.401588227922432
S          -0.057731249434761        7.343356711141743       12.143252005872286       -0.137208524141274        0.383601821001973       -3.469963147488658
S           6.394245273298439        3.740238215623613        7.662131272014985        0.292368755682199        0.271542296554050        3.419471286837017
S           6.404944560317931        3.737137863744341       12.405004676454952       -0.246059310410890       -0.159351902896770       -3.306211828007831
S           4.196139325571236        7.392264932761483        7.680764967271767       -0.122662501510042       -0.043450120168668        3.285886991330473
S           4.291303568015314        7.334631849754618       12.313709044891066        0.046700253126359        0.160073868986890       -3.551052949196860
