# total energy = -9690.123701189565 eV 

 CRYSTAL
 PRIMVEC
        5.828834480010100        0.000000000000000        0.000000000000000
       -2.914417240005050        5.047916380550747        0.000000000000000
        0.000000000000000        0.000000000000000       20.000054246341612
 PRIMCOORD
12 1
Mo          1.444871891825584        0.822713757098266       10.073647634187127       -2.628655137075103       -2.005411482018855       -3.088591759475212
Mo         -0.009863553707073        3.392776279460175       10.061231633861258       -1.479038295591484       -2.034487329324169       -8.185366394304534
Mo          4.322000329011665        0.866158974895021        9.920909438356389        4.218052171613748       -3.162173936599552       -2.180232948214845
Mo          2.913922371957697        3.354674937114693        9.899503043728552        1.955863730869679        4.277427968986148        2.430220134679421
S           1.481267134318767        2.487734315515902        8.684484245020792       -2.666820352335507       -0.701230133862833       -9.254262130437938
S           1.441828074460122        2.557787579830456       11.317934759469363        2.078177076414485        0.028492206627047       10.270835122540879
S          -0.037517876014033        5.026782192493126        8.562630128682388       -0.816678630901163       -0.088940925827818       -6.265451072559573
S           0.031153371645310        5.025534821914404       11.342519034655702        0.281977894725617        1.930007163270343       10.322713322636224
S           4.335495246599784        2.483100974987743        8.413031343102585        1.290650654616629        1.133575721696389       -4.216755820820878
S           4.363910231806385        2.475947246430426       11.267503683548314       -1.702231232715034        0.995886143938799       10.118595151274732
S           2.972903182294024        5.041411984154503        8.400392681299580       -0.638261218217849        0.771095008376438       -2.432747015994838
S           2.828858110206774        5.094757477315556       11.554560375369508        0.106963338595981       -1.144240662372367        2.481043410676561
