# total energy = -9432.24692273928 eV 

 CRYSTAL
 PRIMVEC
        3.631055529463300        0.000000000000000        0.000000000000000
       -1.815527764731650        3.144584864903454        0.000000000000000
        0.000000000000000        0.000000000000000       19.999933739505504
 PRIMCOORD
12 1
Mo          0.914228976736034        0.551169175089376       10.198066003168128        1.370863452644846       -0.894180456545400       -9.822376166888994
Mo          0.004121974237047        2.081756393046346        9.936351503087661       10.505914789108303       12.614409813320041        3.798787848286278
Mo          2.709246724309511        0.535414751358140       10.095887374357925        1.607694555467929      -13.771745881272196       -6.365673232766366
Mo          1.850138622932941        2.069956188786696        9.888628540263925      -13.911782877264397        9.905945284482888       14.273344935014547
S           0.927933669620888        1.582539271155873        8.386366460281192       -2.141340110434840       -9.000162462630250      -36.534001528265328
S           0.952060218086407        1.541193168052980       11.850891616207821       -3.217831145809062        6.110616085713805       29.014278355964834
S           0.041126424243360        3.128388541714283        8.166448314189269       -5.317378212802732        2.418499498573945      -25.439676662396881
S           0.026309902155385        3.146924353981087       11.602864016840112        3.390717084680828       -9.284807106745724       41.262498895108841
S           2.737327855352168        1.552440725661046        8.522866915272539        2.762008804525081       -3.927209880560124      -48.785669661178005
S           2.718533148826113        1.576278242106419       11.640475942436506        3.351408499333970        4.934461333988821       31.866932728474961
S           1.790603110260755        3.135899380076978        8.524462764177740        6.917888845719371        9.254711816581677      -38.243636770060554
S           1.838273785884867        3.149918885476236       11.525950998615022       -5.318163428058867       -8.360538044907482       44.975191772927531
