# total energy = -9699.50019059902 eV 

 CRYSTAL
 PRIMVEC
        6.211059206962799        0.000000000000000        0.000000000000000
       -3.105529603481400        5.378932549709958        0.000000000000000
        0.000000000000000        0.000000000000000       20.000070264801529
 PRIMCOORD
12 1
Mo          1.563266460647833        0.853385249600513       10.070490282514946       -1.042844793048268       -0.022184002203587       -0.803205787208734
Mo         -0.030697539024493        3.534530568435924       10.056594279751209        1.206574001032032        0.802308214694273       -1.342254260771715
Mo          4.676135051688179        0.915663540268729       10.053023541813126        2.066770115034773       -0.813593048619282       -1.485585869826162
Mo          3.124088869497725        3.602995074074275       10.160007794441221        0.742615143050076        0.901687309797968       -2.993721609999159
S           1.582676020669591        2.696948116775687        8.599196565497898        0.336389146786723       -0.297816925714117       -1.518086942292647
S           1.551610165834125        2.693642591065741       11.513285175466766       -0.120319711263188       -0.754230363878862        3.138835508560981
S           0.063431063257028        5.364767608082559        8.588045229797718       -0.715073216575836       -0.072624183658605       -2.142442085741909
S           0.079720808239130        5.341251916819077       11.482480806223913       -0.955885160201382        0.199895646753932        3.198145485663056
S           4.683759747970647        2.696538807973948        8.469833866547120       -0.853333322379712        0.000532732812937       -0.272584108020276
S           4.735461847021247        2.649854623656653       11.574918137083380       -1.114369829614544        0.234018571818875        2.473325983981041
S           3.156075203307663        5.369829621336233        8.283805811133455       -0.233891302155553       -0.041967621423786        2.383583902050370
S           3.055204496256984        5.410214549405826       11.749270643399795        0.683369443555740       -0.136026073269316       -0.636010216394845
