# total energy = -9681.195820353367 eV 

 CRYSTAL
 PRIMVEC
        8.185842864781000        0.000000000000000        0.000000000000000
       -4.092921432390500        7.089144566971965        0.000000000000000
        0.000000000000000        0.000000000000000       20.000036021847581
 PRIMCOORD
12 1
Mo          2.074241011125457        1.172233162843801        9.971035215676748        0.444306622191975        0.572757450834088       -0.125051314524037
Mo          0.034667044532348        4.722262947767733       10.016502661284887        0.247458762486573        0.559951808709985       -0.043948657294288
Mo          6.144251087921722        1.176547102033541       10.073622654211043       -0.546360179998455        0.082350928372032        0.232229854550727
Mo          4.116116018147857        4.707551350971149        9.985509423030255       -0.951573418274281       -0.319403146165736       -0.100892704210723
S           1.981074659144239        3.610861239004979        9.000795092779995        0.476777098517176       -0.375587174648270       -1.565748788430775
S           1.967008925349686        3.603995772594287       11.085790664261204        0.322624482755161       -0.163243783490123        1.725716985030542
S           0.070363868097085        7.092346050116381        9.033848707683696       -0.300994039309418       -0.099530018926665       -2.269144049232672
S           0.034508239180771        7.136453827224681       11.044404679905442       -0.027319525951465        0.042018786399546        2.248186978005598
S           6.095262092713154        3.588626034031375        9.001192924743226       -0.574521742611296        0.112802573593381       -9.734758074228436
S           6.209863892820088        3.556578459215757       10.767411310462698        0.592785324963694       -0.350333273899091        9.606638660931822
S           4.119618740309696        7.110452315948990        9.078291285765166        0.610862759364081        0.033214039691521       -6.366773665410850
S           4.031629115356166        7.098947932386826       10.917374314576913       -0.294046144133744       -0.094997676249806        6.393545289033953
