# total energy = -38803.670563044405 eV 

 CRYSTAL
 PRIMVEC
       12.740577282373799        0.000000000000000        0.000000000000000
       -6.370288641186900       11.033658440967770        0.000000000000000
        0.000000000000000        0.000000000000000       19.999979849788435
 PRIMCOORD
48 1
Mo          1.590438113601927        0.918231241548875       10.006481249019588        0.045033406202483        0.026000035219809       -0.233198132433701
S           1.567838877618453        2.744129237964080        8.386325738906525        0.239834923987921        0.138433655344771        0.564547657663291
S           1.613037349585402        2.770224488353838       11.508320114142160       -0.285192803554268       -0.164658662191664        0.756952906232235
Mo         -0.002132772637069        3.676646488819681       10.006481249019588        0.045294887510764        0.026223207073877       -0.233191704672927
S          -0.024733282678272        5.502543211177159        8.386325738906525        0.239799442748449        0.138439311774252        0.564535830583467
S           0.020465189288677        5.528639735624645       11.508320114142160       -0.285206944627970       -0.164637064915464        0.756942878925428
Mo         -1.594706206991522        6.435060462032760       10.006481249019588        0.045603934248771        0.026329393681861       -0.233190933341634
S          -1.617305442974997        8.260958458447965        8.386325738906525        0.239791729435520        0.138452681516661        0.564535830583467
S          -1.572106971008048        8.287053708837723       11.508320114142160       -0.285183290468323       -0.164677945473986        0.756942878925428
Mo         -3.187277093230519        9.193474435245838       10.006481249019588        0.045357365345486        0.026114706472014       -0.233191704672927
S          -3.209878877329450       11.019371157603315        8.386325738906525        0.239804327846637        0.138486362983116        0.564547657663291
S          -3.164677857247044       11.045470230166258       11.508320114142160       -0.285194860437716       -0.164655062645631        0.756952906232235
Mo          4.775582434195377        0.918231241548875        9.993504971057490        0.045150648558998        0.025667591432585        0.233168821844572
S           4.798181670178852        2.770224488353838        8.491662283761734       -0.285181490695306       -0.164649663326581       -0.756889657066220
S           4.752981924154175        2.744129237964080       11.613660481170555        0.239803813625775        0.138450881743645       -0.564538915908638
Mo          3.183011547956380        3.676646488819681        9.993504971057490        0.044804063698072        0.026267944288863        0.233168821844572
S           3.205610783939855        5.528639735624645        8.491662283761734       -0.285188432676942       -0.164632694038138       -0.756863688912694
S           3.160409763857449        5.502543211177159       11.613660481170555        0.239829524668870        0.138415657614604       -0.564549457436307
Mo          1.590438113601927        6.435060462032760        9.993504971057490        0.045092027380741        0.026379273105466        0.233126398623465
S           1.613037349585402        8.287053708837723        8.491662283761734       -0.285184318910046       -0.164651205989166       -0.756876801544673
S           1.567838877618453        8.260958458447965       11.613660481170555        0.239791729435520        0.138443682651578       -0.564535830583467
Mo         -0.002132772637069        9.193474435245838        9.993504971057490        0.045391046811941        0.025861195587093        0.233126398623465
S           0.020465189288677       11.045470230166258        8.491662283761734       -0.285170434946775       -0.164664061510714       -0.756863688912694
S          -0.024733282678272       11.019371157603315       11.613660481170555        0.239786073006039        0.138490476750011       -0.564549457436307
Mo          7.960726754788827        0.918231241548875       10.006481249019588        0.045681067378057        0.025702044230333       -0.233228985685415
S           7.938126244747624        2.744129237964080        8.386325738906525        0.239809212944825        0.138468879473811        0.564538915908638
S           7.983325990772300        2.770224488353838       11.508320114142160       -0.285176091376256       -0.164650434657874        0.756937222495947
Mo          6.368154594492102        3.676646488819681       10.006481249019588        0.045447611106750        0.026239147920596       -0.233261381599715
S           6.345554084450900        5.502543211177159        8.386325738906525        0.239822325576804        0.138446510866318        0.564538915908638
S           6.390755104533305        5.528639735624645       11.508320114142160       -0.285179433811858       -0.164644521117962        0.756937222495947
Mo          4.775582434195377        6.435060462032760       10.006481249019588        0.045099226472808        0.026709917119673       -0.233228985685415
S           4.752981924154175        8.260958458447965        8.386325738906525        0.239850607724209        0.138433912455202        0.564541744123379
S           4.798181670178852        8.287053708837723       11.508320114142160       -0.285194346216854       -0.164662775958559        0.756931823176897
Mo          3.183011547956380        9.193474435245838       10.006481249019588        0.045362507554105        0.026190039828284       -0.233185791133015
S           3.160409763857449       11.019371157603315        8.386325738906525        0.239812555380428        0.138499732725526        0.564541744123379
S           3.205610783939855       11.045470230166258       11.508320114142160       -0.285199231315042       -0.164654034203907        0.756931823176897
Mo         11.145871075382276        0.918231241548875        9.993504971057490        0.045654070782807        0.026042715551347        0.233119970862691
S          11.168470311365750        2.770224488353838        8.491662283761734       -0.285212601057451       -0.164646578001409       -0.756872687777777
S          11.123270565341073        2.744129237964080       11.613660481170555        0.239821811355942        0.138469136584242       -0.564541487012948
Mo          9.553298915085552        3.676646488819681        9.993504971057490        0.045949747778404        0.026256117209039        0.233156480543886
S           9.575899425126755        5.528639735624645        8.491662283761734       -0.285196403100301       -0.164658147970802       -0.756875001771656
S           9.530698405044349        5.502543211177159       11.613660481170555        0.239810755607411        0.138454738400109       -0.564538915908638
Mo          7.960726754788827        6.435060462032760        9.993504971057490        0.045713206181926        0.026665694125549        0.233156480543886
S           7.983325990772300        8.287053708837723        8.491662283761734       -0.285194346216854       -0.164678202584417       -0.756872687777777
S           7.938126244747624        8.260958458447965       11.613660481170555        0.239828753337578        0.138457309504418       -0.564541487012948
Mo          6.368154594492102        9.193474435245838        9.993504971057490        0.045380762394702        0.026516312965165        0.233119970862691
S           6.390755104533305       11.045470230166258        8.491662283761734       -0.285210029953142       -0.164666118394162       -0.756852118943301
S           6.345554084450900       11.019371157603315       11.613660481170555        0.239852150386794        0.138478649670188       -0.564561798736993
