# total energy = -9341.010267623133 eV 

 CRYSTAL
 PRIMVEC
        4.363648512978900        0.000000000000000        0.000000000000000
       -2.181824256489450        3.779028703452552        0.000000000000000
        0.000000000000000        0.000000000000000       19.999988775209427
 PRIMCOORD
12 1
Mo          1.111724549827378        0.640165564177759       10.088119142054024      -12.199348217096947        4.712824686303836       -7.669644264589870
Mo         -0.006401472368540        2.532211268406414       10.199527888603740       -8.674534672931113      -31.721481758138157      -38.751399532164172
Mo          3.271046780029949        0.664005921463568       10.088680743617644        2.847054764434374       12.022056690990780      -14.609534049885987
Mo          2.137215986835820        2.524180409683128       10.138648446374916       18.752921866571512       -7.634267669063593       -5.017753800759007
S           1.107958721160677        1.886379506634552        9.157430150814305       -8.184178029892664        5.588185687745116      -89.344013534161476
S           1.063124850878927        1.917298574538115       11.075410763614999        4.332141582914055      -11.805885696847019       95.307909295340849
S           0.045976709827300        3.749347602632120        8.957165738689353       -1.474258612680046       -4.475647255730259      -69.528788242906217
S          -0.007227074667196        3.764497317539481       10.799953269408949        5.442496633149250       22.993806987116574      113.485638103965854
S           3.270178413975867        1.914968386232184        9.044280308507910        1.425162861668487        7.308707756518229      -73.127456244142778
S           3.292680003897893        1.860559362018404       11.074106032709617       -9.629957034356778        0.228128171845716       91.140057164039604
S           2.170926480693137        3.799615524407084        9.188984129576506        3.074261452495551       -5.194265253817659      -90.956555906805050
S           2.148045689715332        3.767984745431054       11.052147280662604        4.288237405724322        7.977837653076434       89.071541526289096
