# total energy = -9659.617265127152 eV 

 CRYSTAL
 PRIMVEC
        8.918435848296600        0.000000000000000        0.000000000000000
       -4.459217924148300        7.723588405521063        0.000000000000000
        0.000000000000000        0.000000000000000       20.000056148469234
 PRIMCOORD
12 1
Mo          2.153507948980635        1.274246493445752        9.899463791609227       -0.527225250395554       -0.009475033601523       -0.493273560877626
Mo         -0.037889082857903        5.204688572461377        9.914171184166651       -0.067126391313513       -0.121953133831040       -0.332305976032739
Mo          6.718684917598962        1.332141411598554       10.198614885268638        0.377617575721515       -0.076841823167977        0.494442642007174
Mo          4.342627212303518        5.193384455023661        9.970067480845850       -0.023319658977112        0.242030389957838        0.101664549724447
S           2.213282873410258        3.825890363722459        7.970120727675526       -0.025998235446792        0.011615477939216        3.214263481469142
S           2.233920133963217        3.879283255459041       12.321990115048633        0.097418370957239        0.132795480704377       -2.972279371388876
S           0.025559345297633        7.705824664998425        7.721241965049376       -0.325047748566904       -0.304264226880724        3.041079294497468
S           0.016896868558183        7.724730857153229       12.237907993714479        0.329221165082151        0.098592080074545       -3.121151967340816
S           6.684957176907874        3.817739805200700        7.981834201318679        0.174124696928104        0.253885237708273        3.102440498617696
S           6.644224896701534        3.931137717011792       12.268794320744298        0.019040570074741       -0.372372265819619       -3.016200774977482
S           4.458499098218927        7.759114994722752        8.023700906564923        0.371165646567152       -0.022072416276553        3.224954133188216
S           4.399583911005080        7.703461279498627       12.118192261948455       -0.399871254851891        0.168060490303619       -3.243632691776174
