# total energy = -9296.80037097588 eV 

 CRYSTAL
 PRIMVEC
        4.204419078754800        0.000000000000000        0.000000000000000
       -2.102209539377400        3.641132032678625        0.000000000000000
        0.000000000000000        0.000000000000000       20.000118839462914
 PRIMCOORD
12 1
Mo          1.035317596489884        0.629189212926116       10.030705850838407       -2.094896967739435        2.494214663833481        0.291420275302409
Mo         -0.015568963848629        2.409215379624259        9.810897980517289        2.875983544573182        1.114691988984529       19.829245523055182
Mo          3.173970199558114        0.571655101368620        9.909210332277722        0.113703231433014        6.750331006308270       16.028582825506387
Mo          2.111023263092194        2.423285888513220        9.808515756667267       -8.660750211396369       -6.041643898616473       40.528239583954338
S           1.063728117530753        1.841801275780379        8.918900621584001       -2.365469443747925      -19.078228782452818     -100.601783500987480
S           1.013188897994581        1.853316759195181       10.915703272447479        2.838816432005741       19.058994351113135       91.353550867265852
S          -0.032085603757609        3.674912017324973        9.038955285726397       -9.828973620547277       12.529447671411237     -104.688923268693159
S           0.025288739874894        3.651223479351453       10.930417057455490        4.057255822315877      -12.381785294257799       91.219455950443432
S           3.132977533982163        1.797300863367023        8.984654372440463        2.224140982061042      -15.209483242787357     -112.293219060599569
S           3.115058720310418        1.851881370521694       10.906595239397172        0.962411394270291        2.357337297927276       87.334478257940546
S           2.108792818770914        3.617524219551417        9.047776997837440       14.037057106532071       21.797857817533291     -114.952398348037548
S           2.077704082776878        3.672212780276412       11.023502054975303       -4.159278269760212      -13.391733578996774       85.951350894849611
