# total energy = -9679.897299468863 eV 

 CRYSTAL
 PRIMVEC
        5.446609753057400        0.000000000000000        0.000000000000000
       -2.723304876528700        4.716900211391535        0.000000000000000
        0.000000000000000        0.000000000000000       20.000032712373070
 PRIMCOORD
12 1
Mo          1.364520078299335        0.830415177355995       10.179275721040135       -0.636973352069199        0.064639105004462       -8.839166081417098
Mo         -0.029780428146792        3.182048850945812       10.044698708617691        3.595274143547959       -3.222960498906597       -2.041541411107827
Mo          4.060201928804429        0.751002517834468        9.966427658500406        0.865039303190624        5.349639658347568       -0.250987603151419
Mo          2.700550574963352        3.188830969410318        9.989388386575394        1.127485804028808       -5.715036518175401        1.332286346474053
S           1.363414416519464        2.346081944268525        8.535412100369893       -1.078582371619603       -0.454018968721268       -6.106507975248020
S           1.431729608669137        2.311822768921794       11.605997172041336       -1.162042474390772        4.280095746817728        7.472360088483138
S          -0.023556587181973        4.740707887283124        8.639682542143399       -2.815767253201994       -0.095638138333312      -10.976952411475288
S           0.002328425669432        4.742061914467734       11.506862338603987        1.787598323552590       -1.113631408456843       10.237690245555285
S           4.107306388592771        2.379597657383963        8.393531728929576       -0.343350668815237       -0.182869536905716       -3.857887251945401
S           4.107420222736610        2.351128772865708       11.374637716933890       -2.061599624268285       -0.583973122053171       10.803207209543272
S           2.757187691141495        4.675187350597745        8.608615624772936        1.433604825558436        3.327477174641619      -10.416003785624493
S           2.657326279963089        4.756040638398956       11.406285787565004       -0.710686141292465       -1.653723493259067       12.643502629913796
