# total energy = -9689.339460997799 eV 

 CRYSTAL
 PRIMVEC
        7.548819292434800        0.000000000000000        0.000000000000000
       -3.774409646217400        6.537466227730848        0.000000000000000
        0.000000000000000        0.000000000000000       20.000053200316945
 PRIMCOORD
12 1
Mo          1.876625152870353        1.113986811803896        9.871411326817828       -0.582878345838168        0.713731357236686        0.323253889090136
Mo         -0.092737999889491        4.402608799859098        9.941915789245311        2.346801426687636       -0.275645779032078       -0.029209030508548
Mo          5.637144216707743        1.057944377376860        9.972468880449512        1.350867974429541        0.034775471338705       -0.192193903794700
Mo          3.789065678873663        4.391559593060760       10.095432352785910       -1.530507175880750       -0.293520096192011        0.752790802575949
S           1.906322207966791        3.252629217668873        8.654757553109102       -0.180494864965424        0.204495609474133       -0.612465328680218
S           1.796169081969653        3.317093114898549       11.383411145579208        0.163328887042769        0.063635860102879        0.173333053911196
S           0.013726773001363        6.584163978755779        8.966012734820563       -0.210209631691658       -0.012304791004604       -3.367229018371441
S          -0.038978328416487        6.568220117528226       11.120453309700745       -0.110698124716021       -0.049241532625910        3.609383592667430
S           5.671666477095906        3.332522901532286        8.948710841002301       -0.252414051822353       -0.845426919517441       -3.316401885717837
S           5.641401750788677        3.271868893399501       11.092458513354751       -0.396748648667952       -0.278437741201809        3.224055018011169
S           3.805042000024171        6.512312806966525        8.922790460197866       -0.464400830812766        0.368323804973815       -2.681280500082800
S           3.817647018478679        6.485188389484949       11.296777120969580       -0.132646613764854        0.369615013558067        2.115963310899664
