# total energy = -9689.52876741532 eV 

 CRYSTAL
 PRIMVEC
        7.039168683922899        0.000000000000000        0.000000000000000
       -3.519584341961449        6.096096059494329        0.000000000000000
        0.000000000000000        0.000000000000000       19.999981709846463
 PRIMCOORD
12 1
Mo          1.763073831421170        0.981902086722826       10.024130980007879        0.099799213547874        0.204621336474870       -0.636847882178894
Mo          0.024124638913541        4.111122290148647        9.918559639837007       -0.145584410650468       -0.198461484770070       -0.110321200824243
Mo          5.305135646824121        0.974115358324670       10.138200004613980       -0.046706937997564        0.282396727617641       -0.834289666979799
Mo          3.555432012401195        4.023411432679494       10.199606896545049       -0.039706849404406        0.301463265845909       -0.865997810877221
S           1.747372965671680        3.047955112720536        8.072875532575054       -0.163765203444098        0.014201494653753        4.084714445010489
S           1.745076084930115        3.091041160317960       11.802044786848493        0.256260680979858       -0.149303770144651       -3.376222741246218
S          -0.071591865099838        6.096043265729199        8.179638604004115        0.227487195541347       -0.136000105115789        3.749272235940971
S           0.042478567340001        6.108473733708139       11.721592720126203       -0.071672875064075       -0.069366851608847       -2.967706405263924
S           5.228862030632607        3.040044494953544        8.038992494114993        0.375604401047144        0.081624591404587        4.281094877952416
S           5.324808011545081        3.076877649009039       11.942869691622187       -0.259876939191228       -0.178018120184042       -3.811707647441724
S           3.568377747527798        6.102511557832856        8.063968872439288       -0.028313000656672        0.025735211475926        4.300629100054589
S           3.587570744861382        6.092953070676957       11.960278963611264       -0.203525274707712       -0.178892552759717       -3.812617047036010
