# total energy = -9607.560555186748 eV 

 CRYSTAL
 PRIMVEC
        4.936959144545499        0.000000000000000        0.000000000000000
       -2.468479572272750        4.275530043155016        0.000000000000000
        0.000000000000000        0.000000000000000       19.999922649061634
 PRIMCOORD
12 1
Mo          1.190649399065525        0.713949460161987        9.943540274339208       11.130221852906976       -4.834647979367245       10.890545566054953
Mo         -0.027970342033423        2.873757510623976        9.998570089443884        7.645498766908533        4.099324745249460       12.910113805512578
Mo          3.713225701164631        0.730131331150064       10.152238867168835       -9.297671370048084       -2.350101439068933       -7.824914282284811
Mo          2.424312548373817        2.856952101695944        9.838918210931658        5.272350463029730       -0.806210893925726       35.576966827327148
S           1.289143215086951        2.111566554181063        8.801690741633857      -11.758061356916528       -1.476300583722684      -41.241389100285780
S           1.261192620890107        2.109972903769203       11.284035269968147        0.557109967116649        1.897193444519818       23.377195406460853
S           0.036527079622749        4.239258698015955        8.689139428144252        2.619409188867560        4.122337671482443      -24.185627734510025
S          -0.032750799573086        4.280783955076641       11.387321392231186       -3.287921763281044       -0.315750892494032       22.074272870974784
S           3.734032515479318        2.149898092371143        8.916917393283891        1.819745097845220       -9.382855141148369      -40.990464232079511
S           3.692185368682408        2.161469337214128       11.406263517076976       -2.807101603237115        5.084803058943234       21.446630827776204
S           2.463412277406788        4.241831841122091        8.819206578982790       -6.662588729309558       10.741224055290568      -39.984147632177766
S           2.473817412499832        4.308552869176967       11.297475647543259        4.769009229007233       -6.779015788648100       27.950817677231367
