# total energy = -9550.027359118138 eV 

 CRYSTAL
 PRIMVEC
        3.822194351802100        0.000000000000000        0.000000000000000
       -1.911097175901050        3.310115863519414        0.000000000000000
        0.000000000000000        0.000000000000000       20.000094431321056
 PRIMCOORD
12 1
Mo          0.925945310476383        0.535161102192654       10.156524030228953        0.280930169719479        2.234287330997785        4.340616199828736
Mo          0.002219548260091        2.203407515563254        9.885288123564282       -4.730185553933154        0.889917565600180       -1.609354203299739
Mo          2.840282560529455        0.558974901882122        9.947687357454626       -0.448408819117848        1.833249309010225       -3.177726803678401
Mo          1.887954171320324        2.221635942646434       10.033584677780981        2.851813621400905       -2.699231693261589        4.066108391564060
S           0.906933333551084        1.674303062540466        8.194863809686785        3.357764012076726       -4.037572990384612      -13.243396286962080
S           0.961252830801154        1.627355431536716       12.004600101218621       -1.043652891132756        2.446522221554070       11.873160183768762
S          -0.018570131258231        3.290319572313125        7.885513363165376       -1.712206603215194        2.894693984854579      -13.238595263884871
S           0.034427268965552        3.299850213929343       11.815169473607263        2.248183121349134       -2.850756383308822       11.877185504675779
S           2.825108066733366        1.684540045672897        8.108261676721959       -2.605486144810530       -0.877243821127156      -13.112573614594416
S           2.863599474953189        1.631361855656275       12.054323409760649        1.464460648377244        0.347373932838808       10.518499830482646
S           1.870685879458317        3.335471536410398        8.028457316411812        1.984947291487920        0.486355747622373      -11.289714395209478
S           1.951666328970513        3.292096892686713       12.046968361169478       -1.648159366422788       -0.667594947285409       12.995790457308999
