# total energy = -9691.876814841504 eV 

 CRYSTAL
 PRIMVEC
        7.548819292434800        0.000000000000000        0.000000000000000
       -3.774409646217400        6.537466227730848        0.000000000000000
        0.000000000000000        0.000000000000000       20.000053200316945
 PRIMCOORD
12 1
Mo          1.944234643099186        1.062197382166218        9.854338917106057       -0.267237496608584       -0.260458780096478       -0.278498676373945
Mo         -0.037466299912212        4.385844381974459       10.149188249849267        0.403084363907525       -0.098793911762844       -1.246463398842416
Mo          5.733067063456712        1.049904129948488        9.931978523528750       -0.290301844927758       -0.113047599834081       -0.544949929284672
Mo          3.789666564889340        4.410122894582787       10.137654408852358        0.024634521721011       -0.046069047018367       -0.986458161546141
S           1.830187836111011        3.243421167895961        8.608931690712447        0.119540666657397        0.111939710987099        0.119244475440938
S           1.981634513401625        3.225882996033847       11.333125440744583       -0.266070215252052        0.051278875680791        0.694233387705277
S           0.080593459411822        6.479037611525473        8.370858537631497       -0.151172705867256        0.224687520058687        1.592628398434877
S          -0.025595026692929        6.553869812053309       11.374455981252591        0.100456130698962       -0.065464686598256       -0.482338654249145
S           5.729131863959566        3.268446258732311        8.640029806669562       -0.096319995196203        0.055362817766067       -0.039190314548619
S           5.638550561741924        3.253184055886867       11.346054303546735        0.189592460454306        0.005887828868850        0.937996701967746
S           3.826732777379053        6.471204956627643        8.453087071302061        0.033653441418021        0.160383429945758        1.324591545496457
S           3.713070960174792        6.534131914249380       11.502268815102450        0.200140672994631       -0.025706415107659       -1.090795374200357
