# total energy = -38802.85572554248 eV 

 CRYSTAL
 PRIMVEC
       12.740577282373799        0.000000000000000        0.000000000000000
       -6.370288641186900       11.033658440967770        0.000000000000000
        0.000000000000000        0.000000000000000       19.999979849788435
 PRIMCOORD
48 1
Mo          1.590438113601927        0.918231241548875        9.999991198951946       -0.069406703725645       -0.040071946216361        0.000000000000000
S           1.637991044250659        2.674812853201598        8.438994011334129       -0.459864117258580        0.876325422667788       -0.151668671888567
S           1.542885182953195        2.839540873116322       11.560989660627493        0.528972058663456       -0.836439624403438        0.151672271434600
Mo         -0.002132772637069        3.676646488819681        9.999991198951946       -0.069140851540038       -0.039847745920569        0.000021597276200
S           0.045418883953934        5.433226826414677        8.438994011334129       -0.459909368694428        0.876342391956231       -0.151696182704679
S          -0.049686977343530        5.597954846329400       11.560989660627493        0.528970773111301       -0.836443223949471        0.151695925594248
Mo         -1.594706206991522        6.435060462032760        9.999991198951946       -0.068832833243755       -0.039740787981292        0.000000000000000
S          -1.547153276342791        8.191642073685482        8.438994011334129       -0.459895741841587        0.876323622894771       -0.151695925594248
S          -1.642259137640255        8.356370093600207       11.560989660627493        0.528980029086816       -0.836464564115241        0.151696182704679
Mo         -3.187277093230519        9.193474435245838        9.999991198951946       -0.069079659257471       -0.039953932528553       -0.000021597276200
S          -3.139725436639515       10.950061143129474        8.438994011334129       -0.459891885185123        0.876323108673910       -0.151672271434600
S          -3.234831297936979       11.114780244640100       11.560989660627493        0.528988256620606       -0.836416741575083        0.151668671888567
Mo          4.775582434195377        0.918231241548875        9.999991198951946       -0.069308744651451       -0.040418016856425       -0.000001799773017
S           4.728029503546645        2.839540873116322        8.438994011334129        0.528980029086816       -0.836449908820676       -0.151692326048215
S           4.823135364844108        2.674812853201598       11.560989660627493       -0.459896770283311        0.876334935753733        0.151692326048215
Mo          3.183011547956380        3.676646488819681        9.999991198951946       -0.069657386395825       -0.039814064454114        0.000001799773017
S           3.135457343249920        5.597954846329400        8.438994011334129        0.528967173565268       -0.836455822360588       -0.151681013189253
S           3.230563204547384        5.433226826414677       11.560989660627493       -0.459873116123663        0.876306910716759        0.151678184974512
Mo          1.590438113601927        6.435060462032760        9.999991198951946       -0.069365051835830       -0.039702478527080       -0.000011569969393
S           1.542885182953195        8.356370093600207        8.438994011334129        0.528961002914925       -0.836459936127483       -0.151696439815110
S           1.637991044250659        8.191642073685482       11.560989660627493       -0.459915025123909        0.876323622894771        0.151696439815110
Mo         -0.002132772637069        9.193474435245838        9.999991198951946       -0.069065775294200       -0.040220813155883        0.000011569969393
S          -0.049686977343530       11.114780244640100        8.438994011334129        0.528967430675699       -0.836415198912497       -0.151678184974512
S           0.045418883953934       10.950061143129474       11.560989660627493       -0.459908340252704        0.876326708219943        0.151681013189253
Mo          7.960726754788827        0.918231241548875        9.999991198951946       -0.068741301930336       -0.040366337659803        0.000001028441724
S           8.008279685437559        2.674812853201598        8.438994011334129       -0.459924023988992        0.876336735526750       -0.151689497833474
S           7.913173824140095        2.839540873116322       11.560989660627493        0.528957660479323       -0.836451451483262        0.151689240723043
Mo          6.368154594492102        3.676646488819681        9.999991198951946       -0.068977843526813       -0.039824348871352        0.000000000000000
S           6.415707525140833        5.433226826414677        8.438994011334129       -0.459909368694428        0.876316680913136       -0.151689240723043
S           6.320601663843370        5.597954846329400       11.560989660627493        0.528967944896561       -0.836474334311617        0.151689497833474
Mo          4.775582434195377        6.435060462032760        9.999991198951946       -0.069329056375497       -0.039348437463656       -0.000001028441724
S           4.823135364844108        8.191642073685482        8.438994011334129       -0.459882886320040        0.876296883409952       -0.151665329452965
S           4.728029503546645        8.356370093600207       11.560989660627493        0.528952775381135       -0.836469706323860        0.151670728772015
Mo          3.183011547956380        9.193474435245838        9.999991198951946       -0.069058061981271       -0.039870628748924        0.000000000000000
S           3.230563204547384       10.950061143129474        8.438994011334129       -0.459927623535026        0.876321308900893       -0.151670728772015
S           3.135457343249920       11.114780244640100       11.560989660627493        0.528953803822859       -0.836418798458531        0.151665329452965
Mo         11.145871075382276        0.918231241548875        9.999991198951946       -0.068796837783422       -0.040046492283696       -0.000015683736288
S          11.098320692849002        2.839540873116322        8.438994011334129        0.528949947166394       -0.836441424176455       -0.151679470526667
S          11.193420183857825        2.674812853201598       11.560989660627493       -0.459900112718914        0.876347791275281        0.151681270299684
Mo          9.553298915085552        3.676646488819681        9.999991198951946       -0.068500903677393       -0.039827948417385       -0.000007713312929
S           9.505745984436821        5.597954846329400        8.438994011334129        0.528969230448716       -0.836458650575329       -0.151691297606491
S           9.600851845734283        5.433226826414677       11.560989660627493       -0.459909625804859        0.876330050655545        0.151691297606491
Mo          7.960726754788827        6.435060462032760        9.999991198951946       -0.068742587482490       -0.039409629746223        0.000007713312929
S           7.913173824140095        8.356370093600207        8.438994011334129        0.528989285062330       -0.836459164796191       -0.151681270299684
S           8.008279685437559        8.191642073685482       11.560989660627493       -0.459904740706671        0.876304853833312        0.151679470526667
Mo          6.368154594492102        9.193474435245838        9.999991198951946       -0.069079659257471       -0.039556439802298        0.000015683736288
S           6.320601663843370       11.114780244640100        8.438994011334129        0.528952518270704       -0.836417770016807       -0.151585882329800
S           6.415707525140833       10.950061143129474       11.560989660627493       -0.459882886320040        0.876295083636935        0.151585882329800
