# total energy = -9663.779174014455 eV 

 CRYSTAL
 PRIMVEC
        4.745873239931600        0.000000000000000        0.000000000000000
       -2.372936619965800        4.110044872611764        0.000000000000000
        0.000000000000000        0.000000000000000       20.000016294860590
 PRIMCOORD
12 1
Mo          1.205302307935568        0.696336827366992       10.093984030978124       -0.949439401697361       -0.432254313630567        0.412978230401072
Mo          0.026964153399995        2.750713350324919        9.944736758503403        0.614450478317615        0.790655455742569       -2.844375159522970
Mo          3.569366992466641        0.723098331979642       10.198999290269359        1.026225431901821       -2.920404256618701       -1.349078485830100
Mo          2.394556920097632        2.712745415230819        9.804901976425439       -0.553466969420459        1.967112569334354       -5.684202035522361
S           1.227364448866039        2.049030771340469        7.921712897930437       -0.515707731530531       -0.792862491681879       -1.295725500302802
S           1.172530629451869        2.055262577491823       11.937623374828156       -0.061407226887368        0.282229605837521        3.205005963292206
S           0.043998041632758        4.090986869442171        7.967538100760569       -0.371270290512550        0.339919273003723       -2.117947174984906
S          -0.003620152107420        4.142774312823629       11.859042629483342       -0.989774628995019       -1.234588239367936        3.776171643448257
S           3.580729087590361        2.070298453090574        7.980490063419665        0.443730180605775       -0.257382196679680       -1.649480914037893
S           3.556358553915988        2.053959835287462       11.784834731741800       -0.148608800649782        2.757642040965755        5.657646641771692
S           2.314440410172375        4.132502344783121        7.894613961730427        0.362294565367940        0.321501681503184       -2.106973701791782
S           2.356925942003567        4.099884907179718       11.906446784340398        1.142974136389487       -0.821569385518773        3.995980493079589
