# total energy = -38803.43041703126 eV 

 CRYSTAL
 PRIMVEC
       12.740577282373799        0.000000000000000        0.000000000000000
       -6.370288641186900       11.033658440967770        0.000000000000000
        0.000000000000000        0.000000000000000       19.999979849788435
 PRIMCOORD
48 1
Mo          1.590438113601927        0.918231241548875       10.002422101097423       -0.036255913200139        0.000143981841334       -0.552048234062454
S           1.552966801756738        2.822109215278578        8.438994011334129        0.497342590557906       -0.747309979519299       -0.136908990489212
S           1.627909425447117        2.692244511039342       11.560989660627493       -0.464717333753271        0.802659684653387        0.119068869016596
Mo         -0.002132772637069        3.676646488819681        9.997566667095111       -0.035628306638180       -0.052839535996683       -0.772744371791009
S          -0.016829028532288        5.553079985025423        8.383239971088733        0.231259262673875       -0.336400973866546        0.610713635314127
S           0.012562209200421        5.478102961776381       11.505240716613010       -0.252241016502321        0.425674600592020        0.836186884849810
Mo         -1.594706206991522        6.435059187975031        9.994989248310887        0.001613882175099        0.001874335041656       -0.729637751158096
S          -1.572842102317241        8.248890583646102        8.379778356241111       -0.172035160455739        0.267489464830919        0.614368202979710
S          -1.616569037608076        8.299121583639588       11.501780375823117        0.235750467681783       -0.329298555321869        0.837882528141953
Mo         -3.187277093230519        9.193474435245838        9.997104184139761       -0.102113207426462        0.000689313065388       -0.042098233522711
S          -3.149361135238175       10.968261057777344        8.431855465882814       -0.418946277724380        0.713657823653433       -0.066399797235636
S          -3.225195599338321       11.096580329992229       11.553849841118451        0.513732609199941       -0.732837233360890        0.174130610468015
Mo          4.775582434195377        0.918231241548875        9.995746038601458       -0.121792696922124        0.066725299041224        0.856957551014442
S           4.811337590280631        2.702094251336345        8.407114538858174       -0.414415220599675        0.578156512773695        0.257552146674541
S           4.739827278110123        2.812258200923846       11.529110188151536        0.486043358448764       -0.617072233382055        0.495627921093873
Mo          3.183010273898652        3.676646488819681        9.999991198951946       -0.106587957366788       -0.058706796031057       -0.043396384088598
S           3.212829595028048        5.457052979990443        8.470837810193693       -0.339153855250773        0.722397264311996       -0.491097378190030
S           3.153190952769256        5.574129966811361       11.592829637313873        0.335343221553601       -0.615948146577923       -0.252209906140175
Mo          1.590438113601927        6.435060462032760       10.004241455533347        0.029276650551888       -0.041284221898310       -0.055835900959022
S           1.586353484525198        8.266913404269747        8.504693346206144        0.047382624210111        0.085754299146572       -0.853500701270263
S           1.594522742678656        8.281097488958213       11.626690269557237       -0.041597125292781       -0.070059507109838       -0.655297098262441
Mo         -0.002134046694798        9.193475709303566       10.004501363309906       -0.008921731954109        0.045794195967677       -0.027451680712976
S          -0.036291534388842       11.083430780179091        8.476930354250124        0.524910742296104       -0.674391404417251       -0.552852475490479
S           0.032023440999247       10.981410607590481       11.598929825716674       -0.388155760955033        0.580370490694641       -0.319945134954187
Mo          7.960726754788827        0.918231241548875       10.005002067997104       -0.108485175236799        0.074610875958588       -0.284354880659788
S           7.935641832177560        2.788615511660945        8.494769710560906        0.327720411496672       -0.360804353310130       -0.749040075609190
S           7.985811677400092        2.725738214656974       11.616770456085183       -0.252650336308400        0.293376371461108       -0.531195292559917
Mo          6.368155868549830        3.676646488819681       10.002422101097423       -0.090501071922848       -0.004672724972161        0.019041598516465
S           6.330678186416000        5.580520640376199        8.439034781181432        0.455096261426966       -0.720952560800464       -0.123775789676074
S           6.405631002568205        5.450661032367877       11.561030430474796       -0.401889571734881        0.754516013567652        0.132186128983015
Mo          4.775582434195377        6.435060462032760        9.997569215210568       -0.045100254914531       -0.076747463639817        0.013627109951002
S           4.760864519318779        8.311528357797163        8.383261630070113        0.152265168088381       -0.385029812335493        0.539694592075969
S           4.790300349071975        8.236483809488526       11.505259827478934       -0.174892685785364        0.479374428090675        0.756357695584576
Mo          3.183011547956380        9.193474435245838        9.994989248310887        0.036548247760134        0.017098614989745        0.020382429413891
S           3.204853993649282       11.007340230475570        8.379760519432917       -0.306214666609942        0.299082423255274        0.571532319630591
S           3.161166554148022       11.057501157294004       11.501759990899464        0.400517887585740       -0.374153526885270        0.789777680731291
Mo         11.145871075382276        0.918231241548875        9.995486130824899       -0.045192043338382       -0.008802432714147       -0.388045460580154
S          11.154000837746159        2.757254580680382        8.373289580231200       -0.113726885592661       -0.047497552572748        0.690641040763985
S          11.137740038960665        2.757099145637537       11.495290325755477        0.135887490747032        0.027120779588338        0.898133529421320
Mo          9.553298915085552        3.676645214761953        9.995743490486003       -0.023274664651695        0.036897660835801       -0.045953604434868
S           9.589046426824435        5.460529883530803        8.407078865241782       -0.402095002969213        0.551447366985314        0.298053724421026
S           9.517551403346667        5.570651789213272       11.529080884823788        0.520559148252205       -0.595296265432392        0.531515395046455
Mo          7.960726754788827        6.435059187975031        9.999987376778762       -0.100476185312577       -0.059541376489934       -0.031850840186602
S           7.990560090553233        8.215449116395327        8.470800862519575       -0.305640796128052        0.688084848859439       -0.484468299948739
S           7.930892144966692        8.332561776832634       11.592800333986123        0.328491485679104       -0.566027071083001       -0.248827875531404
Mo          6.368154594492102        9.193474435245838       10.004231263071521        0.011270435740876       -0.044428425358448       -0.028361080307261
S           6.364094172512210       11.025290429808706        8.504692072148417        0.158410878719478        0.040059604915675       -0.899502899576582
S           6.372215016471995       11.039550957960866       11.626690269557237       -0.156721920298540       -0.032953586824964       -0.696631970915648
