# total energy = -38803.38469998096 eV 

 CRYSTAL
 PRIMVEC
       12.740577282373799        0.000000000000000        0.000000000000000
       -6.370288641186900       11.033658440967770        0.000000000000000
        0.000000000000000        0.000000000000000       19.999979849788435
 PRIMCOORD
48 1
Mo          1.590438113601927        0.918231241548875        9.999991198951946        0.871415898988718        0.992292768555784        0.000000000000000
S           1.634438971304333        2.812520656815863        8.438995285391856       -0.613795360939544       -0.596772593526931       -0.148989581198025
S           1.634449163766159        2.812530849277689       11.560989660627493       -0.613795360939544       -0.596772593526931        0.148989581198025
Mo         -0.002132772637069        3.676646488819681        9.999991198951946        0.475787223358002        0.807082755397092        0.000000000000000
S          -0.072070897570932        5.526036835685856        8.438995285391856        0.852152157059909       -0.083157740904366       -0.096585076050517
S          -0.072068349455476        5.526021546993118       11.560989660627493        0.852152157059909       -0.083157740904366        0.096585076050517
Mo         -1.594706206991522        6.435059187975031        9.999991198951946       -1.124958922713391       -0.559613708493280        0.000000000000000
S          -1.568772761933251        8.208217564729852        8.438992737276401       -0.240655106262664        0.794538594581269       -0.086718463262651
S          -1.568785502510533        8.208222660960763       11.560989660627493       -0.240655106262664        0.794538594581269        0.086718463262651
Mo         -3.187277093230519        9.193474435245838        9.999991198951946        0.572426549709450       -0.228087805508056        0.000000000000000
S          -3.143274961470385       11.087761302397370        8.438995285391856       -0.582537674517153       -0.732514045549180       -0.117829082518535
S          -3.143263494950831       11.087770220801469       11.560989660627493       -0.582537674517153       -0.732514045549180        0.117829082518535
Mo          4.775582434195377        0.918231241548875        9.999991198951946       -0.414177136340611        0.824736986028128        0.000000000000000
S           4.705645583319242        2.767621588415050        8.438995285391856        0.976022563374574       -0.066427822272610       -0.136045613662068
S           4.705648131434699        2.767606299722311       11.560989660627493        0.976022563374574       -0.066427822272610        0.136045613662068
Mo          3.183010273898652        3.676645214761953        9.999991198951946       -0.023072832963396        0.045406216327367        0.000000000000000
S           3.208943718956924        5.449802317459045        8.438992737276401       -0.285392064138257        0.888881410563435       -0.118440748233775
S           3.208929704321914        5.449807413689958       11.560989660627493       -0.285392064138257        0.888881410563435        0.118440748233775
Mo          1.590438113601927        6.435059187975031        9.999991198951946        0.007876578052281        0.014031544658892        0.000000000000000
S           1.634442793477518        8.329347329184291        8.438995285391856       -0.627430955534767       -0.688629922973062       -0.113300339387708
S           1.634454259997072        8.329357521646118       11.560989660627493       -0.627430955534767       -0.688629922973062        0.113300339387708
Mo         -0.002132772637069        9.193475709303566        9.999991198951946        0.007307592668579        0.016215697769848        0.000000000000000
S          -0.072069623513204       11.042871152400654        8.438995285391856        0.793789374785469       -0.179341210461733       -0.122990317309509
S          -0.072067075397747       11.042850767477002       11.560989660627493        0.793789374785469       -0.179341210461733        0.122990317309509
Mo          7.960726754788827        0.918229967491147        9.999991198951946       -0.082204375426388       -1.198867372974612        0.000000000000000
S           7.986660199847099        2.691388344245966        8.438992737276401       -0.275811358149613        0.663706923348520       -0.074370220595215
S           7.986646185212088        2.691393440476879       11.560989660627493       -0.275811358149613        0.663706923348520        0.074370220595215
Mo          6.368155868549830        3.676645214761953        9.999991198951946        0.126906366283372        0.002211149706206        0.000000000000000
S           6.412158000309964        5.570932081913485        8.438995285391856       -0.628544757921660       -0.691490790738289       -0.116261480221008
S           6.412169466829519        5.570942274375311       11.560989660627493       -0.628544757921660       -0.691490790738289        0.116261480221008
Mo          4.775582434195377        6.435060462032760        9.999991198951946       -0.001677131341114       -0.002662378512530        0.000000000000000
S           4.705645583319242        8.284454631072119        8.438995285391856        0.914190332944838       -0.199791002808534       -0.114225936939143
S           4.705649405492427        8.284440616437108       11.560989660627493        0.914190332944838       -0.199791002808534        0.114225936939143
Mo          3.183010273898652        9.193474435245838        9.999991198951946        0.003490788321065        0.015339465421156        0.000000000000000
S           3.208939896783740       10.966630263885200        8.438992737276401       -0.196193256548192        0.887977410288200       -0.133500991726915
S           3.208925882148729       10.966630263885200       11.560989660627493       -0.196193256548192        0.887977410288200        0.133500991726915
Mo         11.145871075382276        0.918231241548875        9.999991198951946        0.503041957480867        0.415285282298024        0.000000000000000
S          11.189870659026955        2.812518108700407        8.438995285391856       -0.532021645485004       -0.620087367405854       -0.101745025289336
S          11.189891043950606        2.812527027104504       11.560989660627493       -0.532021645485004       -0.620087367405854        0.101745025289336
Mo          9.553300189143279        3.676646488819681        9.999991198951946       -0.047690899616826       -0.121548442012718        0.000000000000000
S           9.483363338267147        5.526041931916769        8.438995285391856        0.765889036370478       -0.289571137082986       -0.144389875588255
S           9.483364612324873        5.526025369166303       11.560989660627493        0.765889036370478       -0.289571137082986        0.144389875588255
Mo          7.960726754788827        6.435059187975031        9.999991198951946       -0.067938346054466        0.084442778838275        0.000000000000000
S           7.986656377673914        8.208215016614394        8.438992737276401       -0.271518385283971        0.980136587380271       -0.108303141051683
S           7.986642363038904        8.208221386903036       11.560989660627493       -0.271518385283971        0.980136587380271        0.108303141051683
Mo          6.368155868549830        9.193474435245838        9.999991198951946        0.020887908521147        0.027340094785942        0.000000000000000
S           6.412163096540877       11.087761302397370        8.438995285391856       -0.461853380662872       -0.634259808580909       -0.079018777186866
S           6.412173289002704       11.087770220801469       11.560989660627493       -0.461853380662872       -0.634259808580909        0.079018777186866
