# total energy = -9697.848766478652 eV 

 CRYSTAL
 PRIMVEC
        6.211059206962799        0.000000000000000        0.000000000000000
       -3.105529603481400        5.378932549709958        0.000000000000000
        0.000000000000000        0.000000000000000       20.000070264801529
 PRIMCOORD
12 1
Mo          1.578612745736396        0.855629305291988       10.023052075609927       -0.254411285650005        2.545759391699879       -0.781628051401337
Mo         -0.037501133279800        3.574083835677704        9.857763367994233        1.312506583910318       -0.652206373771941        1.518629188191529
Mo          4.663621630703911        0.854909443529901       10.105438670460686       -1.058196342659679        2.111004164907420       -6.564372544685069
Mo          3.051090911744212        3.587472394904233        9.961057630347470        1.396096013228257       -2.271175221637210        0.334793262341790
S           1.622575243909200        2.642859107671851        8.528395459385889       -1.336147373815692       -0.264665878078181       -2.851942433726813
S           1.537753913849312        2.642554765770710       11.709694395238948       -0.238674070392162        0.453632274633113       -1.307486759856369
S          -0.026442342361803        5.409475433360198        8.452275823274956        0.673034375562675       -0.039561067790055       -1.748621410661663
S           0.016849982522569        5.385310686409588       11.381292714047760       -0.693702711775788       -2.275729161590270        4.935438353626448
S           4.630502399694624        2.676864656829972        8.306337049512635       -0.251199462146525       -0.300766239467593        0.359552225511383
S           4.678475999903283        2.675102579332957       11.365125948037957       -0.253896550567235        1.372478877482531        3.610102987653240
S           3.089840467924612        5.424193780362938        8.610349143409922       -0.059131028242131       -0.295950046874959       -4.132578122836916
S           3.109263071170705        5.331053357601244       11.336904758319278        0.763721595437534       -0.382820719512735        6.628113048733346
