# total energy = -9692.126512462859 eV 

 CRYSTAL
 PRIMVEC
        5.956207443844399        0.000000000000000        0.000000000000000
       -2.978103721922200        5.158224551555346        0.000000000000000
        0.000000000000000        0.000000000000000       19.999943953578928
 PRIMCOORD
12 1
Mo          1.541178206026649        0.843759324598719       10.064095314888403       -4.630795917301789        3.722715556638146       -2.267803989666539
Mo         -0.032774627080498        3.457499203592671        9.901088212048247        1.434293367292531       -4.727530631623122        6.939907783026287
Mo          4.462082681003377        0.909183498403395       10.187307208934001       -0.490474142505397        0.967164337696910       -9.066584628473379
Mo          3.016685651260446        3.450039649390000       10.161188048051256       -2.539661503608938       -2.565345550109105       -7.184353468372508
S           1.476821980216654        2.596981493729950        8.551085800725929        1.944000655585454       -0.524109586193251       -3.216163270443462
S           1.458685328550148        2.599474762165944       11.599145774696826       -0.459202572119735       -0.050161216637433        2.270913997439361
S          -0.016518350104014        5.107366878675336        8.727293646123877        1.800856480035172        4.401059005489594       -9.666119873580913
S          -0.003463534628596        5.180818233252081       11.380538070989125       -0.463491174108050       -2.718831992744517        9.455642847041062
S           4.457585744383275        2.541526819944782        8.532399391112355       -1.487002291190289       -0.166650496700266       -3.234144288432241
S           4.493720268082845        2.616077094794916       11.524468037007393        1.351405078119804        1.118320588496586        6.107504021057536
S           2.922007564595329        5.206432903364334        8.509853954695915        0.459543500551180       -0.575451196819195       -1.445163739202842
S           2.930624409904338        5.153755609110229       11.323980903206103        3.080528262139627        1.118820925395222       11.306364609607639
