# total energy = -9679.919951187401 eV 

 CRYSTAL
 PRIMVEC
        8.185842864781000        0.000000000000000        0.000000000000000
       -4.092921432390500        7.089144566971965        0.000000000000000
        0.000000000000000        0.000000000000000       20.000036021847581
 PRIMCOORD
12 1
Mo          2.027135578360075        1.217292134892988       10.012219828298035       -0.065930313588714        0.169667173386651       -0.092206485411367
Mo         -0.043231073337481        4.665803552360765       10.012878788648649        0.277920177904299        0.034447398428808       -0.433486386815700
Mo          6.189465590985340        1.171132166978488       10.005536906183227       -0.122833737057058       -0.082611381238589       -0.562977998482316
Mo          4.064540296594018        4.702856770088196       10.102669299032431       -0.191221512144831       -0.020250017541950       -0.589807729062813
S           1.990029152654023        3.547825337440447        8.413392106151894       -0.124714499859488       -0.153562290212544        2.456452854839243
S           2.005290019506834        3.588283047215340       11.635849017155886        0.075832150505620       -0.077750708541400       -2.190615067416774
S           0.034711248083817        7.083637950476827        8.277914769571197       -0.009244919765819        0.020505328199887        2.871064507808167
S          -0.065159309203657        7.149227835015171       11.783006732920340       -0.031616355473571       -0.009310740036143       -2.786542796067589
S           6.069953922328110        3.537387569203564        8.135505661252601        0.211938442229394       -0.078146658605070        3.157253614282382
S           6.053208143579628        3.580707868228272       11.601294937255073        0.060254343714970        0.002952656189078       -2.414286229941899
S           4.042181485393155        7.055928053795258        8.229112411579946       -0.055422981606910        0.220309443640400        2.974417244622259
S           4.040464095560124        7.154240026601276       11.619653327047917       -0.024960537747461       -0.026250460779558       -2.389265528353595
