# total energy = -9561.57569019081 eV 

 CRYSTAL
 PRIMVEC
        3.822194351802100        0.000000000000000        0.000000000000000
       -1.911097175901050        3.310115863519414        0.000000000000000
        0.000000000000000        0.000000000000000       20.000094431321056
 PRIMCOORD
12 1
Mo          0.989896355273559        0.521163462037485        9.896015876451484       -4.865861957016373        5.798639574346180        1.512977386698295
Mo         -0.030014163366961        2.205390852212404        9.978562661209049       12.405898910245696       -1.488360605597020        6.802980537696476
Mo          2.887873849062049        0.551981815096065        9.897088766406036        3.077807005338408       -7.470561601018614        0.152758820115813
Mo          1.937808198909184        2.189252783220226        9.978785495139759      -10.876569557249148        3.418721038599494        5.398791716543506
S           0.912051634007582        1.670891754081482        8.019040958406713        1.971352834561650        0.734547274837166       -7.821254058189748
S           0.936538139902967        1.674464741361547       12.174638825786111       -0.713438765566260       -0.488654057764672        5.869831910014802
S           0.009984336085777        3.314838184641065        7.904777987137329        0.295177687140373        0.348029821548172       -9.255578021623563
S          -0.009329594193314        3.337484303956058       12.324786086507952       -0.743719432351025       -0.400936206256903        9.075546983875579
S           2.853958754139638        1.658514342112041        7.961174464798169       -1.652528186865561        0.598967031055124       -8.815045780557995
S           2.842353043209827        1.661834682345452       11.965232646053364        0.641975435503413        0.077693372915298        3.974013234969296
S           1.933508994702277        3.333813468500587        7.690286377819509       -0.395825622220827       -1.584410891951151      -12.186111143669702
S           1.890570845573567        3.318475384786240       12.155463258942556        0.855731648479653        0.456325249286927        5.291088928348101
