# total energy = -9659.694330522136 eV 

 CRYSTAL
 PRIMVEC
        4.936959144545499        0.000000000000000        0.000000000000000
       -2.468479572272750        4.275530043155016        0.000000000000000
        0.000000000000000        0.000000000000000       19.999922649061634
 PRIMCOORD
12 1
Mo          1.252813613829984        0.743939018485529        9.963681586561210        0.604085071293698       -5.907826403949053        1.241941340582794
Mo         -0.056511890239869        2.860149276437951        9.997959881293617        3.180956110691184        2.378651752653376       -1.359371130602057
Mo          3.690259460920120        0.707863176928591       10.010146271246015       -1.694236640974945       -0.406131893845625       -0.129018528473660
Mo          2.533251982553272        2.807563256109824        9.865355627150699       -3.976541916057730        4.660894549901439        8.758412837263014
S           1.260854439188705        2.110412786828983        8.476461152548206       -3.032538343091602        1.428850339469231      -13.750973929555409
S           1.208785812178927        2.144153940406464       11.464906692579547        1.625156724607043        1.045358818842137       11.257653238690356
S           0.021669794773154        4.289162468440849        8.294936076546069       -0.146613623705577       -0.567710115964027       -6.645391641024759
S          -0.019638236085173        4.234584878793814       11.659003735043267        0.058088188334181        1.370918217166640        6.920894980878088
S           3.701931419729655        2.161156827700279        8.399119737981584        2.935472727645632       -2.630576266215192      -12.781652949563655
S           3.696756992850256        2.174623371158856       11.638524241119864       -0.769857792982687       -1.209962459401577        7.792874465931458
S           2.438056548936317        4.278877795150932        8.431526431502295        0.416996352216024        1.401095268447730      -10.717415372273781
S           2.459066272271845        4.296007068598847       11.511897163413245        0.799033913356072       -1.563562321325940        9.412046945258043
