# total energy = -9695.964951865153 eV 

 CRYSTAL
 PRIMVEC
        6.083633325403599        0.000000000000000        0.000000000000000
       -3.041816662701800        5.268578550632652        0.000000000000000
        0.000000000000000        0.000000000000000       20.000011477230910
 PRIMCOORD
12 1
Mo          1.486729262602117        0.926601841972217        9.801665908213982       -2.722884053136355       -1.244584178702572        8.286958953108313
Mo         -0.059494283742452        3.534972405868994       10.004053788230179        2.721455547581974       -2.085087947688102       -2.484439582359035
Mo          4.494671038221404        0.906313533195329        9.867220707475202        4.814853561508945       -0.302499677993085        2.687554251708513
Mo          3.088343682011154        3.512114370375455       10.172934840980052       -2.966179940635350        2.903560952286894       -6.847639076890628
S           1.532947233338541        2.599508535231661        8.463431443088309        0.344513065073581        3.302122743713936       -2.776022351453807
S           1.545950391208259        2.605585476560407       11.500363556593141       -1.272887923383730       -0.597462163702750        2.252630617583780
S          -0.082864561161990        5.314441845546204        8.615798473176373        1.583706923591199       -2.245777339046696       -7.993766929826200
S           0.073321773927762        5.226857601650366       11.380630960752541       -1.692016749514087        2.082755441858486        4.138524315773592
S           4.599774321004407        2.621489919163009        8.379679888187475       -1.088508634027451        1.069461636191935       -1.439367441647411
S           4.555957560341520        2.678419343095471       11.397726578760258        1.761008991225034       -2.900677715914175        6.021234215496900
S           3.084350385096359        5.238568595801769        8.330095234768773       -1.407189814103067       -0.723175280476063       -0.329162543903894
S           3.032554939327205        5.272815192880463       11.743350563606420       -0.075871231291125        0.741363272361761       -1.516504427590124
