# total energy = -9688.558616107983 eV 

 CRYSTAL
 PRIMVEC
        7.293967529316399        0.000000000000000        0.000000000000000
       -3.646983764658200        6.316758229576235        0.000000000000000
        0.000000000000000        0.000000000000000       19.999949555872629
 PRIMCOORD
12 1
Mo          1.857145519112613        1.052030818655892        9.988319017824466       -0.389292960391144        0.099221486409520       -0.020813860717032
Mo         -0.036405650732324        4.240008853677975       10.152234891317287        0.141079578789720       -0.070790729175471       -0.831018708077200
Mo          5.394718312037560        1.088122828784456        9.835287932075643        0.603970657151923        0.030383510957146        0.514059396557684
Mo          3.622843649723174        4.213657207788061       10.184651471207827       -0.022387633664903        0.397977636527913       -0.795966843025220
S           1.790228472808405        3.106928926629825        8.143370471214375        0.122183504777175       -0.092678797273030        3.914154069986703
S           1.741618555606029        3.209533167864719       11.855458001848994        0.283371176150958        0.005082816109533       -3.349967138258041
S          -0.016099245130707        6.280929531675479        8.095698558236270        0.110762916544622        0.375350890162223        3.966279353206195
S           0.021396124350497        6.319593394754880       11.957585217607470       -0.290055790245335       -0.179739474519280       -3.990782491496988
S           5.551938323338470        3.107047088903800        8.187838873653606       -0.287112647142203       -0.160206023748400        3.340495704202552
S           5.457199896687190        3.187791309453333       11.610558665671679       -0.192841822080705       -0.036673460540009       -2.212871574761890
S           3.716032108274474        6.316736347673646        8.357779564325643       -0.299468088901705        0.038194782959965        2.943248261298548
S           3.581709319841594        6.371322212472792       11.865944538965893        0.219790851901165       -0.406122380759679       -3.476816168915310
