# total energy = -9695.748235136194 eV 

 CRYSTAL
 PRIMVEC
        5.828834480010100        0.000000000000000        0.000000000000000
       -2.914417240005050        5.047916380550747        0.000000000000000
        0.000000000000000        0.000000000000000       20.000054246341612
 PRIMCOORD
12 1
Mo          1.502154762677883        0.805349076298867       10.158553351640194       -5.068452121086704        2.398552871340521       -5.393321435014526
Mo         -0.004162370702175        3.393103277074503        9.970493584627492        0.834823428234460       -2.155118144208811       -0.123454658747812
Mo          4.346452872538755        0.865471755309828        9.957351894408861        2.148963691823061       -0.628649916087920        0.219414185119817
Mo          2.900980610761731        3.325487631339490       10.133676468962959       -0.056763041173043        1.393689716704957       -2.990759440724136
S           1.488925639942052        2.527980086066580        8.245078140628678       -0.048911917053427       -0.206182253901192        2.177612221592129
S           1.537933314483081        2.479909688109937       11.859123971551414       -1.303988515332807        0.412542171110174       -1.282969223381442
S          -0.004388529480000        5.073980013928112        8.339126967847090       -0.523523117300245       -0.033699464185162        0.094459544117818
S          -0.067660527760509        5.075012300514522       11.536301551360877        3.451030306684486       -1.701372226765216        4.458393088929786
S           4.409066212523024        2.504584310230716        8.258148136183205       -0.675273293195424        0.702230550549675        1.355911709753569
S           4.354786357194826        2.533378169678517       11.703975552663191        0.955232613927620       -0.469423483081456       -0.089942628066816
S           2.873017943110778        5.051948768244017        8.114414906740636        0.462501813169739       -0.278346466998821        2.865568258125660
S           2.880847816467776        5.006167353587674       11.811732632811690       -0.175639591587285        0.565776645523252       -1.290912135924909
