# total energy = -9681.379396050861 eV 

 CRYSTAL
 PRIMVEC
        6.402145111576700        0.000000000000000        0.000000000000000
       -3.201072555788350        5.544417720253212        0.000000000000000
        0.000000000000000        0.000000000000000       20.000000427745366
 PRIMCOORD
12 1
Mo          1.632684649571957        0.970311033754098        9.957084074331739        0.249155948441302       -0.017496621936862       -0.193908316148302
Mo         -0.006815723685785        3.750215912519330       10.161229915719098       -0.245948238704718       -0.112299665590435        0.742759639112273
Mo          4.845845735759987        0.950030318469645       10.100348076566046       -0.262071119608991        0.278342610342356        0.413513534318319
Mo          3.272374526325001        3.648423085674283       10.088406795503934        0.255165904764855       -0.351959754485307        0.379035282637796
S           1.659946263886073        2.763485937412082        7.682669525854203        0.122231070206901       -0.258777792098899        3.838859794502639
S           1.648088850924922        2.747028583188263       12.347018929202568       -0.105305233426758        0.211198735519539       -4.224329008564632
S           0.001729219394637        5.505541334277673        7.753468287785084       -0.169005371137375        0.322318007121463        4.105151124725311
S           0.018577744684773        5.495363844193800       12.210478459764438        0.151464526206389        0.051397917810323       -4.529014639441690
S           4.881458948372154        2.731890711071940        7.942836697825901       -0.243133907927493        0.010900968051595        4.530300705817322
S           4.768831771354786        2.791107992495980       12.342530385264840        0.096920348052481       -0.018700412974589       -4.603757670161789
S           3.148431557822922        5.523549928262027        7.609388652263561        0.242927962472299        0.029651260449789        3.667610106413465
S           3.218300728283603        5.597163073183959       12.324074921551698       -0.092401889338892       -0.144575509319404       -4.126220296100281
