# total energy = -9683.730541766608 eV 

 CRYSTAL
 PRIMVEC
        7.994704042442199        0.000000000000000        0.000000000000000
       -3.997352021221099        6.923613568356005        0.000000000000000
        0.000000000000000        0.000000000000000       19.999959362479569
 PRIMCOORD
12 1
Mo          2.052352453551507        1.151890549431944       10.168326562672702       -0.023380079928386       -0.003228792791922       -0.085946360638495
Mo          0.037579905821904        4.553340515971125       10.062805263486913        0.039031163191858        0.071649220904427       -0.263266168892066
Mo          6.032505467966100        1.117135172548235        9.901499317904173       -0.095341432895991       -0.065750593397477       -0.075230512097188
Mo          4.071680383644493        4.571032796017049       10.090709179006248       -0.158644334990784        0.059439303648845       -0.284955747736928
S           2.004147586057197        3.425558796049569        8.432679512940117       -0.008957470304012        0.025174453626015        2.640562178243021
S           1.974926143311667        3.400642501430895       11.739823950594651        0.073800720990652       -0.106951254405726       -2.406775262922435
S           0.030791602619466        6.944834710766264        8.504980418418349        0.227126983827580        0.020873253226583        1.902434640654818
S           0.007112088716157        6.932362172989650       11.624053440826449       -0.147230945850298       -0.002685518451316       -1.937448710473449
S           6.047585878201359        3.468304080153295        8.223844252354654        0.015802264196874       -0.211001017598135        3.040224402314545
S           5.976834346366554        3.401366022146735       11.672916272463452        0.023304746572116        0.220302501658764       -2.713112571207942
S           3.974221743485506        6.894703919068130        8.372751211437972       -0.222744022311105        0.067037945325264        2.532991287698695
S           4.016927853539423        6.914516394626110       11.665670672189787        0.277232407501496       -0.074859501745321       -2.349476917832145
