# total energy = -9689.054210054712 eV 

 CRYSTAL
 PRIMVEC
        7.803618137828300        0.000000000000000        0.000000000000000
       -3.901809068914150        6.758128397812754        0.000000000000000
        0.000000000000000        0.000000000000000       20.000017783330357
 PRIMCOORD
12 1
Mo          1.887972255984559        1.118256138065354        9.884658929799054        0.174931509460438        0.292249199331805       -0.372878773368599
Mo         -0.024893541859672        4.491394269357864       10.124571805104820       -0.028093428348637        0.116076617821152       -0.446964372716748
Mo          5.766824641060845        1.154127809921323       10.165600107826268        0.131931332545940       -0.065012172239776       -0.194836484804047
Mo          3.845630041578110        4.569336026956679        9.976049442896603       -0.070359040761899       -0.217374528071058       -0.460038695241198
S           1.857474935940112        3.407623100205387        8.465677100641653        0.088590741420859       -0.095859253303933        1.159067449594201
S           1.883770787979152        3.396726908199537       11.379015906549739        0.034029851088938        0.150347124273463       -0.587835692057395
S          -0.079544620764325        6.822373244856053        8.519752272527734       -0.059109688076362        0.000699340372195        1.371435780464150
S          -0.081614920656291        6.800146199314076       11.518564107899454        0.173412243923930       -0.066621683537549       -1.132633669077373
S           5.779832492134791        3.431641076109995        8.666645239268773       -0.114183770828467        0.016188701174598        0.492239976945190
S           5.928589743248957        3.315701941074466       11.437091213093272       -0.093624192327648        0.048522137640100       -0.089665463022247
S           3.897569363179868        6.774227262031093        8.644032694990788       -0.009234121127719       -0.093631391419715       -0.194247701917162
S           3.859178683389008        6.798062633271276       11.295088773839209       -0.228291436969372       -0.085584092041281        0.456357645201227
