# total energy = -38802.772917182345 eV 

 CRYSTAL
 PRIMVEC
       12.740577282373799        0.000000000000000        0.000000000000000
       -6.370288641186900       11.033658440967770        0.000000000000000
        0.000000000000000        0.000000000000000       19.999979849788435
 PRIMCOORD
48 1
Mo          1.602088097468930        0.924956992296240        9.999991198951946       -0.085548610801809       -0.049391428007156        0.000000000000000
S           1.655952710103350        2.795001088994871        8.463188367593357       -1.007972391077093       -0.582006227256371       -0.795364433285494
S           1.655952710103350        2.795001088994871       11.536800400599178       -1.007972391077093       -0.582006227256371        0.795364433285494
Mo          0.009517211229933        3.683372239567047        9.999991198951946       -0.085166030480549       -0.049388342681985        0.000000000000000
S           0.063380549806625        5.553416336265678        8.463188367593357       -1.007998616341050       -0.581973831342071       -0.795382945236523
S           0.063380549806625        5.553416336265678       11.536800400599178       -1.007998616341050       -0.581973831342071        0.795382945236523
Mo         -1.583056223124520        6.441786212780124        9.999991198951946       -0.084982967853710       -0.049064897759845        0.000000000000000
S          -1.529191610490100        8.311831583536483        8.463188367593357       -1.008003501439238       -0.581965603808280       -0.795382945236523
S          -1.529191610490100        8.311831583536483       11.536800400599178       -1.008003501439238       -0.581965603808280        0.795382945236523
Mo         -3.175627109363516        9.200201460050931        9.999991198951946       -0.085354492426439       -0.049061812434673        0.000000000000000
S          -3.121763770786825       11.070240460518649        8.463188367593357       -1.008018413844234       -0.581926523022775       -0.795364433285494
S          -3.121763770786825       11.070240460518649       11.536800400599178       -1.008018413844234       -0.581926523022775        0.795364433285494
Mo          4.736707110733669        0.895786166550517        9.999991198951946        2.288076632926413        1.320766513615152        0.000000000000000
S           4.824144418564873        2.785215051584280        8.445536297768628       -0.812422939048010       -0.469052472729589       -0.132486433966370
S           4.824144418564873        2.785215051584280       11.554449922308450       -0.812422939048010       -0.469052472729589        0.132486433966370
Mo          3.144134950436945        3.654201413821324        9.999991198951946        2.287855775066223        1.321149351046843        0.000000000000000
S           3.231573532325876        5.543629024797358        8.445536297768628       -0.812429109698353       -0.469026247465632       -0.132486691076801
S           3.231572258268148        5.543627750739629       11.554449922308450       -0.812429109698353       -0.469026247465632        0.132486691076801
Mo          1.551562790140220        6.412615387034402        9.999991198951946        2.287582980898981        1.320927978965791        0.000000000000000
S           1.639000097971423        8.302042998010437        8.445536297768628       -0.812402627323965       -0.469040902760196       -0.132497746825332
S           1.639000097971423        8.302042998010437       11.554449922308450       -0.812402627323965       -0.469040902760196        0.132497746825332
Mo         -0.041009370156505        9.171029360247481        9.999991198951946        2.287748560016515        1.320641043724846        0.000000000000000
S           0.046429211732427       11.060460793396699        8.445536297768628       -0.812403141544826       -0.469070984680618       -0.132486691076801
S           0.046427937674698       11.060460793396699       11.554449922308450       -0.812403141544826       -0.469070984680618        0.132486691076801
Mo          7.953276065194094        0.913928748600617        9.999991198951946        0.155962673195933        0.089446662045505        0.000000000000000
S           7.889966862620251        2.716322928045300        8.414092553035729        0.852903690849588        0.492435637983146        0.362615696296202
S           7.889966862620251        2.716322928045300       11.585889844868165        0.852903690849588        0.492435637983146       -0.362615696296202
Mo          6.360705178955098        3.672343995871424        9.999991198951946        0.155836431974334        0.089972195766375        0.000000000000000
S           6.297394702323526        5.474736901258378        8.414092553035729        0.852913461045964        0.492418411584272        0.362615696296202
S           6.297394702323526        5.474736901258378       11.585889844868165        0.852913461045964        0.492418411584272       -0.362615696296202
Mo          4.768131744600645        6.430757969084502        9.999991198951946        0.155444338567129        0.090344234559966        0.000000000000000
S           4.704822542026801        8.233152148529184        8.414092553035729        0.852865638505807        0.492428438891079        0.362640121787142
S           4.704822542026801        8.233152148529184       11.585889844868165        0.852865638505807        0.492428438891079       -0.362640121787142
Mo          3.175560858361648        9.189173216355307        9.999991198951946        0.155582663978982        0.089825642820732        0.000000000000000
S           3.112250381730076       10.991571217973176        8.414092553035729        0.852888521334161        0.492389100995143        0.362640121787142
S           3.112250381730076       10.991571217973176       11.585889844868165        0.852888521334161        0.492389100995143       -0.362640121787142
Mo         11.185550329270502        0.941140073560311        9.999991198951946       -1.855130692236579       -1.071414389915032        0.000000000000000
S          11.104950889266748        2.733552010704254        8.435141260763938        0.716107057618702        0.413425859661363       -0.155028076779414
S          11.104950889266748        2.733552010704254       11.564839863082227        0.716107057618702        0.413425859661363        0.155028076779414
Mo          9.592979443031505        3.699555320831118        9.999991198951946       -1.855436139428553       -1.071559914418952        0.000000000000000
S           9.512378728970024        5.491965983917333        8.435141260763938        0.716086231673795        0.413432544532568       -0.155025248564674
S           9.512380003027751        5.491965983917333       11.564839863082227        0.716086231673795        0.413432544532568        0.155025248564674
Mo          8.000408556792507        6.457969294044196        9.999991198951946       -1.855716132687862       -1.071075004146173        0.000000000000000
S           7.919807842731027        8.250381231188138        8.435141260763938        0.716090859661552        0.413453884698337       -0.155028076779414
S           7.919807842731027        8.250381231188138       11.564839863082227        0.716090859661552        0.413453884698337        0.155028076779414
Mo          6.407835122438056        9.216384541315001        9.999991198951946       -1.855437424980707       -1.070883199764681        0.000000000000000
S           6.327234408376574       11.008790108170304        8.435141260763938        0.716136625318262        0.413461598011266       -0.155011107490971
S           6.327235682434302       11.008790108170304       11.564839863082227        0.716136625318262        0.413461598011266        0.155011107490971
