# total energy = -9688.757749513046 eV 

 CRYSTAL
 PRIMVEC
        7.293967529316399        0.000000000000000        0.000000000000000
       -3.646983764658200        6.316758229576235        0.000000000000000
        0.000000000000000        0.000000000000000       19.999949555872629
 PRIMCOORD
12 1
Mo          1.780709845182647        1.075507911942503        9.930528913089692        1.544480613582246        0.711544890131852       -0.807414170742592
Mo          0.036228407321362        4.226465414769541       10.098866389698784        0.062503288654526        0.634280377415386       -0.463820275459672
Mo          5.530699019289853        1.002280854328684       10.191233547506283       -0.649786707506231        0.048898290200586       -1.326850517742820
Mo          3.644376171266469        4.235870985898594       10.123975872918457       -1.585950983432567       -1.090419992971164       -1.318609614209877
S           1.757479287998527        3.207311425355289        8.850378390814779        0.452634429050580       -0.216639449348960       -3.951610431788967
S           1.839272381078776        3.186333974740975       11.142532486392057        0.025735211475926       -0.501331658894160        4.691642129228816
S           0.024943180760003        6.349445415662113        8.830313415538383        0.018786287858528        0.146028954585588       -3.022214073736638
S           0.029787833992975        6.339958152096731       11.160606208532950       -0.541719336719733        0.021892438974885        3.993946749570741
S           5.527064435269994        3.160990355163612        8.786020797716608       -0.070607923659063       -0.331750103281017       -3.246304840485081
S           5.412477664177940        3.169471780606702       10.885350838292124        0.955931440078954       -0.430483851203017        4.600182549619371
S           3.689404750411950        6.270184788108043        8.887925547465441       -0.463516885151146        0.271233764036905       -5.147560115593111
S           3.686558644282012        6.262515181250967       10.997775677408491        0.251510565767980        0.736746340353117        5.998613125560691
