# total energy = -9675.92195721966 eV 

 CRYSTAL
 PRIMVEC
        7.548819292434800        0.000000000000000        0.000000000000000
       -3.774409646217400        6.537466227730848        0.000000000000000
        0.000000000000000        0.000000000000000       20.000053200316945
 PRIMCOORD
12 1
Mo          1.814064312984299        1.113960390936372       10.195708603620828        1.858207275653376       -0.560002716575314       -0.115453639246950
Mo         -0.083649976343329        4.405367138428553        9.975587297699215        1.494768825978121       -1.189133686279550       -0.045217754381477
Mo          5.702283733264093        1.094876220883168       10.133224006809627       -0.031981452285526       -0.030390452938782       -0.369833043203516
Mo          3.700774688429345        4.365097207031130        9.907072704037219        0.607298437459763        0.025911846341991        0.424366422719325
S           1.787157301498345        3.324313560551763        9.139300410969978       -0.624445132100096       -0.117606424885329       -8.203406804802864
S           1.973484808093513        3.233563164781970       10.969741887409214       -0.161939719384324        0.000685970629786        8.524485282536697
S           0.089005108749382        6.501494594038538        9.023727987602800       -0.620149845240576        1.222795612341792      -14.908503858772505
S           0.098866886273019        6.476896011492209       10.732023528835008       -1.052668725504595        1.483765270864576       14.896790678869525
S           5.608035969516115        3.326246813172555        9.191935308368407       -1.744741100037702        0.231410443607276      -19.096309559288805
S           5.743006593819061        3.221354459340315       10.835644661498403       -0.050778024561292       -0.526921860087028       19.213410762177311
S           3.836070666843795        6.491130065150024        9.190433093329213        0.312608488806910       -0.035022040241990      -12.336039435051141
S           3.702693598293481        6.588204106841089       10.942277018177547        0.013821485436803       -0.505491962777429       12.015710948444401
