# total energy = -9682.955474128308 eV 

 CRYSTAL
 PRIMVEC
        8.185842864781000        0.000000000000000        0.000000000000000
       -4.092921432390500        7.089144566971965        0.000000000000000
        0.000000000000000        0.000000000000000       20.000036021847581
 PRIMCOORD
12 1
Mo          2.041595051196424        1.132060320400602       10.003372569329780       -0.113267172142115        0.112959153845832       -0.977966061122156
Mo          0.048973442107125        4.662955697628109        9.914917169917242        0.156473808732669        0.298986521064528       -0.987542910454337
Mo          6.089503352257780        1.140902667863138       10.178683035874787        0.095119546594078       -0.255856503382398       -0.721536201478730
Mo          4.097582451317707        4.788364447485127       10.172613233390553       -0.191773014019228       -0.036692486711899       -0.346787206835371
S           2.009220861250502        3.560228526549163        8.490734405291207       -0.346677677791784       -0.055156872310872        1.492612697904140
S           2.088263359952827        3.599064620852543       11.386343708053076        0.121037306475981        0.043039000589572       -0.923369946661195
S          -0.002863407834100        7.070086287614182        8.293994220710486       -0.130986708822614       -0.185718320480689        2.357522931658425
S           0.084946128576405        7.043343138974943       11.407155394952493        0.125215608089417        0.209844020658841       -1.362419174761019
S           6.143611773593983        3.586752294599626        8.352897090212592        0.381337449436560        0.156730919163624        2.461101668541326
S           6.082041137902245        3.545706022722755       11.572390726099531       -0.253082281832403       -0.157401720277983       -1.862507447611085
S           4.049285978415498        7.109635368831085        8.513243017416494        0.246754279905759        0.016071715928514        1.651741428946842
S           4.092444197751483        7.073552173483130       11.383725875504917       -0.090151144626320       -0.146805685197500       -0.780849521016408
