# total energy = -9659.784961478377 eV 

 CRYSTAL
 PRIMVEC
        6.083633325403599        0.000000000000000        0.000000000000000
       -3.041816662701800        5.268578550632652        0.000000000000000
        0.000000000000000        0.000000000000000       20.000011477230910
 PRIMCOORD
12 1
Mo          1.487681351217543        0.868217821311652       10.156407434324926       -0.691433198001755       -2.138492869522453       -7.722948142024856
Mo          0.049309673192394        3.464860356883715       10.006877810819832       -3.650308117072835        3.304173970732088       -2.054743003295599
Mo          4.547819484042128        0.912927050983375        9.934922420936955        2.226838070481751       -1.217645176188919        0.370383773746620
Mo          3.067774309374632        3.553229389478530       10.120019398315689        1.430259561741291       -2.413464247894138       -5.833709951349190
S           1.552598585706260        2.632553006365256        8.778724257264006        1.957107888245066       -1.195439576709131      -12.923721375070825
S           1.533795900187435        2.582086834477703       10.835881140079264        1.475099106678835        4.760496559748772       20.887298140983958
S          -0.071957823336206        5.306432133909978        8.875066499695095       -1.197494917494179       -1.133881425998793      -15.468020379522885
S           0.020841311046168        5.303595335690342       10.885695146474333        1.574031858074394       -3.640401137947309       19.559579618426234
S           4.639035048669900        2.591223235005794        8.891112690954181       -2.643874274814572        4.374268869915463      -16.286377941538177
S           4.559191011453972        2.614042943609383       11.083331708863390        1.948755141674658       -0.125920604891093       17.545338707097983
S           3.007784817879492        5.298496642600321        8.980924761373782        2.788689925276487       -1.660200619235665      -17.389712591456167
S           3.060520184997420        5.274521652028239       11.089608801728541       -5.217671301899570        1.086506515101610       19.316633144002907
