# total energy = -9686.048397604558 eV 

 CRYSTAL
 PRIMVEC
        7.293967529316399        0.000000000000000        0.000000000000000
       -3.646983764658200        6.316758229576235        0.000000000000000
        0.000000000000000        0.000000000000000       19.999949555872629
 PRIMCOORD
12 1
Mo          1.855110502171933        1.015121154767292       10.138026242570179        0.929113022357418        2.763744042823590       -0.543484142717802
Mo         -0.062107404115376        4.210105774998037       10.075301768801822        1.153192990467760        0.728391022678399        0.153214676909894
Mo          5.493728086074007        1.056203697479414       10.010251978185121       -1.851227755894695        0.518442615184591       -0.026089509649781
Mo          3.565939032646459        4.270564013055035       10.135847534469171        1.137965882304931       -3.641639124672354       -0.650416370951638
S           1.785380172591668        3.186504653581161        8.826478247411469        0.043018174644665       -0.374597299489097       -3.980647712529637
S           1.818384646265072        3.172964861656491       11.003013475491292       -0.709959290104157       -0.444150813270816        4.370950602693569
S          -0.030725838217245        6.297388369405382        8.860137719369003        0.440636627900535        0.136254901552865       -4.806336521373158
S          -0.061480852304608        6.367147874855764       11.038892501768000        1.734482650953062       -0.701859025976946        5.094336199502153
S           5.444581332861473        3.190409114399604        8.829709475026956       -0.726762485208736       -0.164024113648069       -4.218521912371101
S           5.477592371105653        3.186755566064170       11.026830467664769       -0.911516641573346       -0.431977405696430        4.526565919697282
S           3.694508339492213        6.340427883605620        9.152059076017565       -0.415656035539460        0.449514136860520       -9.539622312882758
S           3.713423785485989        6.270949925301869       10.990249761711743       -0.823287397418409        1.161901063653747        9.620051597893838
