# total energy = -9678.161043276827 eV 

 CRYSTAL
 PRIMVEC
        7.548819292434800        0.000000000000000        0.000000000000000
       -3.774409646217400        6.537466227730848        0.000000000000000
        0.000000000000000        0.000000000000000       20.000053200316945
 PRIMCOORD
12 1
Mo          1.881135572397582        1.034050854552445       10.108472938113593       -0.084498314691361        0.105050951210544        0.023213729479558
Mo         -0.043899403713225        4.387803300580845        9.895242194442115        0.396924769313156        0.006164993913419       -0.141397624392810
Mo          5.633626466917469        1.069600509246308        9.981772045345508        0.068107781828465       -0.175631106943064        0.036437176053962
Mo          3.848173688815356        4.299236778232355        9.884169586303972       -0.373852964791484        0.273389120779593       -0.048324162608266
S           1.834108692851501        3.316137434376127        7.933981189428842        0.093930925071777        0.169656117638120        3.986071971291477
S           1.889698953002920        3.311858008719245       11.937831913866292        0.029082532176518       -0.421614826887253       -3.983809656609512
S           0.034477722354337        6.597067175572338        7.894807346592681        0.043173212234530       -0.273167234477680        4.239678244182165
S           0.050269097432182        6.479051954282129       12.006965510710270       -0.307362664684152        0.215864775620495       -4.230235606494942
S           5.687081166091057        3.247224263055490        7.829550068455370       -0.118188265790578        0.217605670348486        4.318084327212067
S           5.630059649801793        3.208473908981634       12.127965535148707       -0.026246347012663       -0.030774061701766       -4.235816702619664
S           3.784349931461678        6.526740865280156        7.973201080062688       -0.027585378137072       -0.247913590838931        4.102733258232619
S           3.749880512808562        6.537439806863324       11.982203873667224        0.306514457372435        0.161369448448468       -4.066634953726654
