# total energy = -9652.599029866455 eV 

 CRYSTAL
 PRIMVEC
        4.554734417592800        0.000000000000000        0.000000000000000
       -2.277367208796400        3.944513873995805        0.000000000000000
        0.000000000000000        0.000000000000000       19.999888929728577
 PRIMCOORD
12 1
Mo          1.180418635866603        0.629241114524863        9.991237634551620       -0.740441531466790        3.240566906997476        0.087726336151991
Mo         -0.034483894275595        2.652562545498723       10.054926941386261        2.573020296473086       -2.381572012928153        1.752721036483227
Mo          3.451532194307648        0.639037437310222       10.168845403904674        0.875407281318851        1.812399195722428        4.036232930818479
Mo          2.292653808448725        2.667937051525308        9.821953642346713       -2.128314896002702       -1.623388319062941       -1.728550599090088
S           1.094755012834284        1.997520682391964        8.105138964743785       -0.560142070428891       -0.588206702409262       -4.140564744153645
S           1.121846117676685        1.999877757453069       12.002558251282007        1.457671647447900       -0.553207544995627        2.792589519182769
S           0.046552574061891        3.925652263299111        7.922665372612416       -0.404293297153871        0.535232440546759       -3.804271499557668
S           0.064864883787823        3.906921373480203       12.006615153227756       -1.363172251213284        0.238480980458516        3.781005833771057
S           3.434107146846264        1.971109599398111        8.138237308809549        0.733283319958595       -1.193805639920418       -4.958479819117267
S           3.458876703556016        1.956286671709497       12.065996136776796       -1.122940862940832        0.801166644380837        3.211668980110383
S           2.295037756442893        3.980083616956554        8.005744183862751       -0.054018901543469        0.512186861289045       -4.707216079363003
S           2.284560956335546        3.957077197939851       12.153544964384556        0.733941779772269       -0.799852552968230        3.677137590542902
