# total energy = -9698.095717789853 eV 

 CRYSTAL
 PRIMVEC
        6.402145111576700        0.000000000000000        0.000000000000000
       -3.201072555788350        5.544417720253212        0.000000000000000
        0.000000000000000        0.000000000000000       20.000000427745366
 PRIMCOORD
12 1
Mo          1.535752331295619        0.975759259244050       10.172905507759079        0.925023423842661       -0.544944787076053       -3.814119086173643
Mo          0.018896571511330        3.734408376024336       10.001383077216785       -0.809820210155461       -0.804445830817226       -0.656249435298695
Mo          4.784006135698245        0.951238403252200       10.059735428836250       -0.034951077763047        0.449643720517721       -1.864444774708324
Mo          3.150692795476330        3.742096712088829       10.167979697310233        0.829024816685151       -0.932756534274469       -3.292069982974059
S           1.592283272630842        2.734543119791666        8.257719802993689        0.015903308596239        0.404525982093885        3.286892036005073
S           1.581625621663600        2.788150841668943       11.698139754850891       -0.444596642758091        0.543075337132585       -0.515720587052079
S           0.005500723079867        5.549456208456022        8.362371827845566       -0.235753553006954        0.276056384390312        2.332514314260375
S          -0.011641020456380        5.574697305772925       11.660557242402401        0.042257127769040       -0.207445180338039       -0.765973368591831
S           4.848606980946609        2.719407808533388        8.087534780565202       -0.158016214207963        0.387726129424909        3.912912483715626
S           4.756295090797297        2.788719992369362       11.792863973278244        0.315995661624300        0.189315552520168       -2.306736422452911
S           3.193107006840526        5.518719509775343        8.253737028519778       -0.134574941997011        0.177898563833649        3.336905157034277
S           3.150688954189264        5.583647504638908       11.637489673350879       -0.310491441518434        0.061350662592558        0.346089666236192
