# total energy = -9696.283479896683 eV 

 CRYSTAL
 PRIMVEC
        6.911795720088600        0.000000000000000        0.000000000000000
       -3.455897860044300        5.985787888489730        0.000000000000000
        0.000000000000000        0.000000000000000       20.000075772584175
 PRIMCOORD
12 1
Mo          1.708902785735874        0.977980388336504       10.094449559930638       -0.028330998386839        0.216256611917269       -0.141288352459655
Mo         -0.052320911241927        4.017000892498952       10.198532218140736        1.067787333065562       -0.337091315373658       -1.712884603421620
Mo          5.089130997416216        1.047333346591873        9.918766918676569        1.332543971125869       -0.465581224801277        1.233027321941613
Mo          3.535290201583098        3.933709606994453       10.031663498788925       -1.588593307331483        1.082517446765357       -0.468686090365479
S           1.717929590946310        2.948402024015083        8.325453548665598        0.092390833590361        0.015502473434381        3.149009111203406
S           1.746015672854890        3.012338207964618       11.768999338578526        0.017668628815170       -0.263968594589433       -2.488430450468305
S          -0.024301873751832        5.949542431733585        8.571845933674886       -0.579947801146152        0.003183027135213        0.811432549667974
S           0.073307887766404        5.953353595893642       11.730819961379902       -0.572203120744951        0.471482680522968       -1.853312664379302
S           5.148598705432714        3.030659304879857        8.401133564723136        0.224973941078770       -0.055432494692855        1.661402096279513
S           5.167872247798181        3.012775033454128       11.539066703897054       -0.221888615907320       -0.530129055602750       -0.310720012691552
S           3.404487232298709        6.021892344613184        8.236581679296698        0.140468170184911       -0.117896445451445        3.155299575007131
S           3.440150715855222        5.980001333112871       11.768382806400295        0.115131222766533       -0.018843109263769       -3.034848480313725
