# total energy = -9674.147937460242 eV 

 CRYSTAL
 PRIMVEC
        8.727297025957800        0.000000000000000        0.000000000000000
       -4.363648512978900        7.558057406905104        0.000000000000000
        0.000000000000000        0.000000000000000       19.999988775209427
 PRIMCOORD
12 1
Mo          2.139903557954964        1.215377347510125       10.021709648064700        0.118777820008756        0.039411686629671        0.132594420347371
Mo         -0.044581651397700        5.057794154721614       10.167697254525814       -0.132487462408094        0.142113162722156        0.774558285881390
Mo          6.490045706056492        1.332481091734129        9.812216992064501       -0.044703019298707        0.126401144286547       -0.246244172810746
Mo          4.283258761883695        5.024233334008292        9.859203886522556       -0.027051359771980       -0.245895016845510        0.557508488284628
S           2.132548192021487        3.711145168995544        8.543775060447446        0.463955258435923        0.109165746547535        1.945755691387147
S           2.193483052586427        3.764294407883627       11.790235299295865       -0.331725677790076        0.096635212584553       -2.375653845028451
S          -0.084511653480565        7.564602006944869        8.375480482787983        0.127761001355863        0.365212511648839        2.075225448667132
S           0.010207446601560        7.526986484033289       11.557683379093683       -0.298027242046638       -0.471486022958570       -2.075487958417136
S           6.537676675035062        3.770734280359081        8.596658116776236       -0.344180878396788       -0.463516370930284        1.692369762135787
S           6.494811682962367        3.794567655807270       11.763186787623315        0.382662596597698        0.234197006457958       -2.347170894376918
S           4.265303220982489        7.627895855895925        8.248943403208623       -0.303999403136841       -0.006031810710185        2.245636956751395
S           4.373812323095330        7.507151083352691       11.563906814602893        0.389018366450885        0.073792750567292       -2.379091668600739
