# total energy = -9670.743026347582 eV 

 CRYSTAL
 PRIMVEC
        8.727297025957800        0.000000000000000        0.000000000000000
       -4.363648512978900        7.558057406905104        0.000000000000000
        0.000000000000000        0.000000000000000       19.999988775209427
 PRIMCOORD
12 1
Mo          2.112897810037840        1.324985216318534        9.963460176794648       -0.063954162816400       -0.000260452866557       -0.010453081680872
Mo         -0.067960334670836        5.060921145246013        9.920543693669501        0.050414727522354       -0.085431625555725       -0.002065882312717
Mo          6.504205745481108        1.250632136576184       10.114958198597952        0.137590333131241        0.005404975479518       -0.363245102631178
Mo          4.318960388557483        4.984861006205387        9.884263447202891        0.002029372631521       -0.143850200793682        0.212941944241408
S           2.129615820220765        3.776434078046734        9.172952957669523        0.449507451989315       -0.503795033933132      -16.893776652066013
S           2.090074182855556        3.829006442601401       10.833566453904425       -0.325355766863187        0.513063093637737       16.793734212050456
S           0.017508703293477        7.520818030495342        9.116851274197561       -0.602629312033635       -0.094888404316650      -22.890427253707234
S           0.049849447882568        7.528911725757215       10.716692237592204        0.453501405423757        0.274502408945625       23.099201180752441
S           6.560430483841139        3.834950604605782        9.131683315493175        0.707693375876158        0.276727442615102      -14.890571948876037
S           6.474963191336232        3.811828503865209       10.813826180761410       -0.764630480810957       -0.367433688661852       14.947609583989340
S           4.310233091531526        7.555677473006125        9.040647134756005        0.044450793965941       -0.101264228783451       -1.077179062887455
S           4.375706146549962        7.529617764086614       11.050225966222341       -0.088617480905678        0.227225457122636        1.074231806017428
