# total energy = -9566.32148951541 eV 

 CRYSTAL
 PRIMVEC
        4.013280256416000        0.000000000000000        0.000000000000000
       -2.006640128208000        3.475601034062666        0.000000000000000
        0.000000000000000        0.000000000000000       19.999977480556058
 PRIMCOORD
12 1
Mo          1.018806911285484        0.565346375113040       10.046877498825840       -1.789739539221576       -3.360167223274854        9.040219753552048
Mo          0.020738625725030        2.321421363791963        9.823320932766391       -7.022181321158603        3.912590838566501       16.682372485312140
Mo          3.006078948976020        0.572974015568384        9.802270073837413        1.646246979037351       -4.450044456126274        9.953689663069351
Mo          1.975410787892699        2.307925504945687        9.857447460098799        7.440935023170197        5.684438577118839       14.481806472886150
S           0.984472897363819        1.708762829064061        8.402555108182998        1.983576635780504       -5.397167292840738      -30.310243740299715
S           1.033688555804300        1.751348949848968       11.822536492500021        0.004111452901388        0.392539236692371       11.278761233740401
S          -0.000809077299693        3.445724971849828        8.022771173613892       -2.017790577938006        1.336123976766475      -16.599359240469973
S           0.014882848502893        3.443712713129262       11.814363045929804        0.673188127600386        0.110536916475813       12.175235372440342
S           3.012338863519977        1.711673661234039        8.395773467205707       -1.998050667491069        3.259046719222307      -32.830488264162994
S           3.030509391208926        1.753520937123740       11.812559477782571       -0.347354135335625       -0.334044813877283        9.426277493390494
S           1.965994027099044        3.479747956551620        8.028058269023694        2.403868629500498       -0.446660725297791      -16.122185163447401
S           1.977238435721471        3.496554370281414       11.734317769887561       -0.976810606845448       -0.707191753425367       12.823913676878728
