# total energy = -9304.640993676408 eV 

 CRYSTAL
 PRIMVEC
        4.013280256416000        0.000000000000000        0.000000000000000
       -2.006640128208000        3.475601034062666        0.000000000000000
        0.000000000000000        0.000000000000000       19.999977480556058
 PRIMCOORD
12 1
Mo          0.976445935522961        0.588322404581021        9.866701683042068       22.037598124882621        8.525621967751945       37.710204102530469
Mo          0.028097376403194        2.285489261672194        9.999785668297053      -15.376270779347323       -9.566073062688028       -2.423852280635979
Mo          2.958536427074439        0.603913998377198       10.096109611715370       15.089726860478391       20.974721343937851      -22.731796288458856
Mo          1.962245222011526        2.340613672634196        9.928246941086311       12.524810170568118      -27.508201299012484       29.164916529246138
S           0.984621388733306        1.729155510030987        8.947935414020369       -1.966585235840467       10.087156459108950     -113.894960224038755
S           1.000426890367150        1.761649836283111       11.253016305920308        3.979226406067322       -7.124957616386494       67.417216892388126
S           0.012228464941300        3.486264319703963        8.806572834252449        9.934323334078591       -3.894199472329920      -78.693138084308202
S          -0.025540515551831        3.462551050652878       10.896562773465824      -26.822550771713320       -3.910127720637961      115.381866870148727
S           2.995832643153364        1.760062583941698        8.837146404573851        3.547001145915453       -5.669855530585551      -78.652042324355776
S           3.001226491817987        1.742201078832493       11.149104453521186       -3.692013742967479       12.113792664313502       83.470097682061393
S           1.992063492988671        3.495150524847720        9.070633431299775      -29.080018407834640        4.870895407923162     -122.146145603115386
S           2.022813647641356        3.443189381383825       11.089784960707153        9.824752638602304        1.101227115715460       85.397632728538113
