# total energy = -9687.911482576483 eV 

 CRYSTAL
 PRIMVEC
        5.828834480010100        0.000000000000000        0.000000000000000
       -2.914417240005050        5.047916380550747        0.000000000000000
        0.000000000000000        0.000000000000000       20.000054246341612
 PRIMCOORD
12 1
Mo          1.512024728102884        0.814521330236611       10.031227708375406       -0.257788945381450       -0.077051882390067       -0.487276717186051
Mo          0.046053038343112        3.371310430720642        9.993617736776589       -0.112511781695972       -0.079394672636921       -0.006389965540504
Mo          4.355047488979531        0.830421807814631       10.077824576975502        0.193932998749674       -0.152565473071735        1.532993176637645
Mo          2.954425194108943        3.371288864033065        9.851483356631887        0.012836238265387       -0.078745725909193       -1.882608083992650
S           1.446428773515194        2.474988986041913        7.942118639695673        0.374674946839245        0.134272580130208        3.830221912464303
S           1.512417008663389        2.513046029245346       12.243284965625437       -0.160321723442329       -0.195142703327313       -2.862462878340595
S           0.004065612049807        5.008791494870575        7.948487807131981       -0.068039647564262       -0.038776366754783        3.588296680672725
S           0.033746620105466        5.027074799984023       11.973228069565193       -0.061155258665033        0.019855353030435       -3.695958074088746
S           4.416837214651774        2.507984852266353        7.723800227130343       -0.250520947719237        0.310657277746399        3.277148322003203
S           4.417645091110702        2.492089620639366       12.049244814436246        0.051493048669776        0.012163123157149       -3.529213217860320
S           2.918011299345424        4.997948114087412        7.848833389794144        0.188385841201838       -0.127437556433723        3.453585213036878
S           2.923822064438546        5.010647978652458       12.253357774490343        0.089015230742364        0.272166046459544       -3.218336110695455
