# total energy = -9664.392102548905 eV 

 CRYSTAL
 PRIMVEC
        8.727297025957800        0.000000000000000        0.000000000000000
       -4.363648512978900        7.558057406905104        0.000000000000000
        0.000000000000000        0.000000000000000       19.999988775209427
 PRIMCOORD
12 1
Mo          2.121350197207481        1.259001614424077       10.029524069821743       -0.505204513315623        0.266246593007687        0.237718133809875
Mo         -0.036444319650697        5.059863396846468       10.050695619677015        0.206746611297137       -0.349945551369212        0.356255041344827
Mo          6.467736989398738        1.309652228173629        9.956617103196594        0.281060010487111        0.061940731031598       -0.195887295135357
Mo          4.343840166919083        5.075365694553676        9.827562198425243       -0.259428795710075        0.122706467393736       -0.187774689707460
S           2.163143477205387        3.775334438621464        8.121784067351308        0.263332503383252        0.137417554921640        3.099951926756490
S           2.172679794665652        3.823051807840591       12.024102423159864       -0.279990688204772       -0.105703240373875       -3.125428485138876
S           0.075909156802078        7.507185992540795        7.760990626460591        0.102305268918385        0.094085448440780        3.257853726822679
S           0.078178254028827        7.499682262557877       12.128118712763740       -0.067400471032910       -0.096242090735624       -3.360574743307917
S           6.607837161286142        3.724134005159277        7.790582272486508       -0.264488986101684       -0.016667955017896        3.215489898224793
S           6.565279370068761        3.818576449925679       11.865515217982374        0.255026808021709        0.001853509096749       -3.323525644428284
S           4.347144321573111        7.539867101713900        8.081036317537110        0.031361301926065       -0.330102539639462        3.215304264493644
S           4.411743774159251        7.562647965140757       12.112839833860397        0.236680693220975        0.214411073243880       -3.189381876623984
