# total energy = -9697.088492451916 eV 

 CRYSTAL
 PRIMVEC
        6.338432170797099        0.000000000000000        0.000000000000000
       -3.169216085398550        5.489240720714558        0.000000000000000
        0.000000000000000        0.000000000000000       19.999965611692456
 PRIMCOORD
12 1
Mo          1.612860336414169        0.881823600427456        9.915804623558740       -1.722472765612762        0.874236143305855        3.314832740757724
Mo         -0.036495424753016        3.659591425665136        9.849435534141540       -0.328819301478570        0.084963684571388        8.990030511877640
Mo          4.742585454015784        0.920954545277089        9.961122512050288        1.158530603014369       -1.623764985844288        0.754918648502526
Mo          3.122530997087761        3.656994570004759       10.011437620465292       -0.568711303982163        0.330275574959495        0.428990296709604
S           1.495698854639504        2.784667842498809        8.688500974602686        2.626135197741321       -1.430842173977833       -6.819451803234693
S           1.534772753599600        2.732839116481418       11.602933003561356       -0.120395301729889       -0.166754369314372       -0.352499172169448
S          -0.003879754331745        5.452472109534981        8.639765403484644        0.597321524297018        1.430817748486892       -6.939716235755226
S           0.040515258435735        5.475753804741536       11.443125282455133       -0.564392105852563       -0.289894067784265        1.822194588920920
S           4.731638347813600        2.745160394778231        8.673369235481342       -1.762747829069577       -0.252189851526561       -6.961212210445580
S           4.705513231935226        2.721236616392774       11.372137377515074        0.729519480359857        0.523595622441774        3.547309935543029
S           3.184955046321856        5.467776887854588        8.394751406392830       -0.240976237190926       -0.093347284393511       -1.289002576754213
S           3.180904154321499        5.481812078210384       11.331393301677974        0.197008296614317        0.612904216185857        3.503605276047717
