# total energy = -9687.854422591763 eV 

 CRYSTAL
 PRIMVEC
        5.828834480010100        0.000000000000000        0.000000000000000
       -2.914417240005050        5.047916380550747        0.000000000000000
        0.000000000000000        0.000000000000000       20.000054246341612
 PRIMCOORD
12 1
Mo          1.444037202728046        0.876263842349566       10.143498637945225       -0.193885433319948       -0.100363056722957        1.425993842581331
Mo         -0.060324939567417        3.368067850099412        9.941310359036425        0.263474942562001        0.044583720058744       -0.597738557416025
Mo          4.398428006713557        0.886416506246848        9.824878807414775       -0.127293574592389        0.122535231846720       -2.197223576823588
Mo          2.886540256220953        3.386059130605411       10.116813650812290        0.115300915650963        0.033856558658475        1.081696493159320
S           1.479220047649387        2.529299151309407        8.002106089746698       -0.495774216929086       -0.147536135931841        3.329776770336073
S           1.443447907562117        2.558059786400672       12.026041390138221        0.041706397225936       -0.157980218747630       -3.689020206219880
S           0.027004407262439        5.030032350599179        7.720987814493738        0.338442173577892       -0.060274398328584        3.265764500562277
S          -0.061101340320154        5.095536209602085       12.254849956117225       -0.261885228767411        0.055901978339778       -2.634654294760556
S           4.347347015747989        2.562906462270801        7.897909261698589        0.376448494591967       -0.291638304947858        3.703146624627794
S           4.422359452438134        2.529731650827824       12.071736538044261       -0.259799034730649       -0.074413415147615       -3.391265501230053
S           2.904881266795753        5.061274903412034        7.835615924727273       -0.196516701470332        0.449051852305665        3.013221379303585
S           2.957742383811517        5.012461329059190       12.236592297875491        0.399781523311488        0.126276445727534       -3.309697474120276
