# total energy = -9686.940992351208 eV 

 CRYSTAL
 PRIMVEC
        7.994704042442199        0.000000000000000        0.000000000000000
       -3.997352021221099        6.923613568356005        0.000000000000000
        0.000000000000000        0.000000000000000       19.999959362479569
 PRIMCOORD
12 1
Mo          1.914478186046761        1.170211213215605        9.866420954977150       -0.019193293670728       -0.134559258260722        0.097506559835056
Mo         -0.034413203550692        4.601080091690164        9.818013821470567       -0.016540685354574        0.028301944908141       -0.583836339303903
Mo          6.072169593131869        1.123415812043978        9.896273179871628       -0.198348356180450        0.099649575277059        0.063690881735103
Mo          4.038702229469418        4.598284343686522       10.127149839502103       -0.214200242690498        0.240432448629458        0.429992513169464
S           1.912597831655979        3.521416096988856        8.547289991151761       -0.092274876786001       -0.072179896833917       -0.008440421227363
S           1.924477961863048        3.489748274806338       11.094517023341654        0.412715463540637       -0.170459587734852        0.391698485583151
S          -0.016491475498750        6.876302508773640        8.568818130197251       -0.083514095961669       -0.230051614979684       -0.161808335954106
S           0.057137350320930        6.927120045549020       11.117797601513244       -0.088040782209048        0.167344951974273        0.311441721671240
S           6.029058151582999        3.402705934544249        8.814816772524004        0.243906267662080        0.021231922277764       -0.449007886421972
S           5.921168821059837        3.477290127497000       11.400647832123637       -0.338902915470161        0.169323673850896       -0.161263518950914
S           3.908218266381507        6.937715426816469        8.615024321680949        0.130390212622801        0.104650887379980       -0.469373346547420
S           3.997402387856567        6.877072398772928       11.157281845838057        0.264003304497612       -0.223685046488397        0.539399943522095
