# total energy = -9678.524989169355 eV 

 CRYSTAL
 PRIMVEC
        7.293967529316399        0.000000000000000        0.000000000000000
       -3.646983764658200        6.316758229576235        0.000000000000000
        0.000000000000000        0.000000000000000       19.999949555872629
 PRIMCOORD
12 1
Mo          1.782140921611899        1.074935335491452       10.034208285138407        0.060699658981382       -0.105908928718638        0.008611656774379
Mo          0.008547071150853        4.148085169096260       10.180393252964214       -0.054490956294701        0.135653263144432        0.416306010708912
Mo          5.459261171910976        1.063224870623134        9.939197793498284        0.033818249204263       -0.075048992132934       -0.187219588287030
Mo          3.710067831025751        4.170298947206793       10.045235305249227       -0.028769114561185        0.139199330208152       -0.164232373097142
S           1.863146995595734        3.161252937994668        7.849533718692618        0.048471486885202       -0.217023058111943        4.275939813811784
S           1.826236602310382        3.157912300866241       12.127666681852823       -0.211982408113087       -0.023389593014331       -4.421499798971312
S           0.046033687871022        6.256364907830248        7.867791248815249        0.102894566026132        0.348895512369195        4.246527151841922
S           0.045371395619360        6.324286333463242       12.171008166308775       -0.143835802609549       -0.220425657555191       -4.309761662562081
S           5.401934234114314        3.217895701637080        7.945425321610282       -0.014570191011741       -0.397889961870958        4.427921903315685
S           5.491769655792385        3.207301943197501       12.200024298537148        0.180768173353528        0.103989342241134       -4.425540546504187
S           3.685444855440285        6.263736191415375        8.031175392075184       -0.119902163923318        0.265491973892836        4.353676895500344
S           3.658424352727932        6.254066578661760       12.240757460204616        0.146898759173505        0.046456769548246       -4.220729719641705
