# total energy = -9693.948497478123 eV 

 CRYSTAL
 PRIMVEC
        6.211059206962799        0.000000000000000        0.000000000000000
       -3.105529603481400        5.378932549709958        0.000000000000000
        0.000000000000000        0.000000000000000       20.000070264801529
 PRIMCOORD
12 1
Mo          1.617051748956448        0.844645047084475        9.836683033045801       -3.401558917333303        2.608918054842906        8.895437527446155
Mo         -0.035292480625804        3.629704491981977       10.130221417802389        0.119600573387809       -2.523108991174541       -0.861345911849968
Mo          4.639321482662591        0.892366478289332       10.179253382499915       -0.615691807478262        2.348095720597060       -3.716132758274427
Mo          3.029452823678995        3.628977176948841       10.011310068179164        2.861826272913553       -2.481465843114619        1.920081415083357
S           1.505111071081199        2.683490614791960        8.753853803069035       -1.110691093568452        2.027532492166858       -7.769511612401947
S           1.592064657766836        2.693847556019571       11.514248510749766       -0.677976552266476       -1.051791721824610        2.648084972342308
S           0.035602412480231        5.404515281477518        8.739319924524743        3.514839973438690       -2.281062917480414       -8.561192681653591
S          -0.067524772380337        5.421190733236371       11.412556080566008       -1.023103854159607        0.180600537352546        6.573110185570615
S           4.632443976802721        2.654432174292185        8.606597663648916        0.245696527592813        0.336325640510277       -2.463248026418931
S           4.622429886043334        2.702940546698565       11.477062899277680       -0.925132438665386        1.151101140001517        4.627877456800030
S           3.080261151309713        5.403459401412333        8.732394593508980       -2.145176455175106        0.067802334636491       -8.043253231582378
S           3.073781774345009        5.410425725418864       11.353418101432831        3.157367514203295       -0.382946703623902        6.750092407828344
