# total energy = -9673.469010133502 eV 

 CRYSTAL
 PRIMVEC
        7.803618137828300        0.000000000000000        0.000000000000000
       -3.901809068914150        6.758128397812754        0.000000000000000
        0.000000000000000        0.000000000000000       20.000017783330357
 PRIMCOORD
12 1
Mo          1.919573007633695        1.101379253118673        9.882492645403993        0.115019893949930        0.308203930014234        0.119875938659361
Mo          0.010289070514727        4.519046390229259        9.801602680872707        0.252928015573830       -0.014196609555565       -0.242294956591290
Mo          5.813071223231058        1.060875353536089        9.855721553020359       -0.085567894084131       -0.048176838331329       -0.301732460467118
Mo          3.893201678108125        4.514245604350866       10.110803881624252       -0.180104828441666       -0.206854083457275        0.461411922052924
S           2.009529996079324        3.318940442601665        7.977993886927141       -0.409418536484512       -0.046628262205692        3.864642571408291
S           1.923925085469161        3.417407276626596       12.011791011939080        0.369975225271834        0.147000317793732       -3.990057954302560
S           0.095591981102955        6.703924466227399        7.886600252382338        0.011611878393183       -0.120488889926756        4.034226183904882
S          -0.004802346602020        6.818957601197125       12.103144848031379        0.014261401384165        0.012254140249706       -4.018277880983226
S           5.821640376308206        3.427113416866427        7.925015123389426        0.358263330921010       -0.081464154495671        3.900355981599117
S           5.845464042121183        3.318216266838474       12.189730673441467       -0.390249411194293        0.193934541412260       -3.845476788553675
S           3.848414372529687        6.802251615487663        7.863290845004646       -0.016375877568332        0.228171880618978        4.053864021510730
S           3.996150130029612        6.713838182709695       12.203737387637055       -0.040343197721017       -0.371756486337484       -4.036537092458298
