# total energy = -9681.42804703389 eV 

 CRYSTAL
 PRIMVEC
        8.376928769394899        0.000000000000000        0.000000000000000
       -4.188464384697450        7.254629737515218        0.000000000000000
        0.000000000000000        0.000000000000000       19.999984452360476
 PRIMCOORD
12 1
Mo          2.181954552728951        1.160203796868317       10.119726182159830       -0.570990073731709        1.049948497145100        0.419702696612247
Mo          0.037788325678740        4.765017397258454        9.951970644316805        0.239103959032718       -0.398502141807060       -0.248368676301720
Mo          6.253938580580842        1.213563995436485        9.884455949206991        0.097062273010367        0.365921622217410       -0.194179310542528
Mo          4.249591671620601        4.793725132151170       10.161364544300985       -0.352564735329342       -0.392698130938701        0.494790769530686
S           2.063173891243316        3.652753926044507        8.901765974505166       -0.346019732198973        0.159015345342651       -0.811906918413085
S           2.152814568311734        3.623986714957528       11.064526470344804        0.397229188063406       -0.196926278386842        0.519845152585446
S          -0.006220707304153        7.204551619638898        8.985035159551582        0.633285360047593       -0.510965586742013       -5.786573638931933
S          -0.063496282379136        7.309386370109245       10.838227928103985        0.120344650974991        0.075907483861890        5.805296934734876
S           6.333258043712489        3.632916521025703        9.040048126165953        0.336006309355032       -0.227151409318521       -2.037119111695415
S           6.277362148805824        3.596672063319162       11.048271040067792       -0.299775592977126        0.038882553362767        2.141347823747768
S           4.168471168803535        7.221525790404323        8.980338215590583       -0.638889853221532        0.218604801483173       -2.013277518543467
S           4.265508673975329        7.239721317384325       10.978151957803572        0.385208246974575       -0.182037270440718        1.710442054327555
