# total energy = -9676.34510027996 eV 

 CRYSTAL
 PRIMVEC
        8.376928769394899        0.000000000000000        0.000000000000000
       -4.188464384697450        7.254629737515218        0.000000000000000
        0.000000000000000        0.000000000000000       19.999984452360476
 PRIMCOORD
12 1
Mo          2.064436294408864        1.226228236350056        9.918581043934875        0.331442599205595        0.077276339796290        0.493156832741973
Mo         -0.003746162545673        4.843470685955345       10.042814248356509       -0.075224341446845        0.112968924042209        0.579275457369207
Mo          6.228449261721327        1.190917806201303        9.840413408509020       -0.228355971687541        0.301924521959041        0.442246396308739
Mo          4.292561965436089        4.767362937313884        9.829325705589849        0.054310721882602       -0.528700292937938        0.489860677017140
S           2.101670905095947        3.625976235540259        8.381103830693565        0.211403909643440       -0.171808131945207        2.354858239152016
S           2.153473832605886        3.618899406115875       11.864022227481607       -0.242313468542319       -0.068091583871314       -3.019163972694229
S           0.008612320467815        7.241328850015172        8.362437520316723        0.152048423995086        0.215391178206677        2.184214046127739
S          -0.014882451651707        7.218363499793876       11.637314053423964       -0.065193692204030       -0.248360448767930       -2.626834281003085
S           6.331884227394307        3.597794571774261        8.309979516977018       -0.435400573974153       -0.031109590814161        2.369623834091282
S           6.282427677632677        3.555021973477731       11.654628327497429        0.080236709298296        0.225824976605228       -2.858178904340037
S           4.226256061147698        7.294591038516739        8.139412681838984        0.033843188916065       -0.019557876261821        2.859922884393200
S           4.176136896320408        7.320159100506686       11.929616092824599        0.183202237803371        0.134241983988925       -3.268981209163944
