# total energy = -9671.30554699521 eV 

 CRYSTAL
 PRIMVEC
        8.918435848296600        0.000000000000000        0.000000000000000
       -4.459217924148300        7.723588405521063        0.000000000000000
        0.000000000000000        0.000000000000000       20.000056148469234
 PRIMCOORD
12 1
Mo          2.204272577672724        1.231538779699014       10.009833894449820        0.064630106139379       -0.028534115627293       -0.639241837401508
Mo          0.047503156702367        5.085677397127367       10.135897768852663        0.202043033073261        0.034697823988557        0.309006114558811
Mo          6.659132954065546        1.261000832523862        9.952504405129799        0.001462701241698       -0.153465616690506       -0.248272774110974
Mo          4.426573773412779        5.090208854381887       10.196872222903881       -0.102382402047671       -0.231159503826665       -0.209209215004816
S           2.306256675285165        3.844729667608401        8.460489328827512       -0.033486833858763       -0.154431580579600        1.992365698752241
S           2.170071268038091        3.844685967272744       11.513673924843365       -0.066430136266489        0.407685869290312       -1.700357669004671
S          -0.074402051064414        7.760533917866216        8.269592885025478        0.055139645911999        0.312678937064992        2.280306241482116
S          -0.036479078150288        7.696680592723167       11.522559362479022       -0.014130789285241       -0.228362913669177       -1.978785897120535
S           6.597203335534974        3.915825654503851        8.350665926104417       -0.036094704959931       -0.358538953302993        2.441483628438661
S           6.684328427180569        3.881124912461714       11.763638952955839       -0.113510398609798        0.239901772699969       -2.324413535912303
S           4.493962366526094        7.723155861382421        8.381187489108044        0.005193630705274        0.391706456006510        2.265774617035018
S           4.397307926176595        7.764756797240384       11.692637501480379        0.037566405066713       -0.232178175354106       -2.188655371712041
