# total energy = -9667.556324917128 eV 

 CRYSTAL
 PRIMVEC
        4.745873239931600        0.000000000000000        0.000000000000000
       -2.372936619965800        4.110044872611764        0.000000000000000
        0.000000000000000        0.000000000000000       20.000016294860590
 PRIMCOORD
12 1
Mo          1.169171500372646        0.718904878384839       10.133171655494888       -0.339588371879085       -1.428039156059571        4.318157860795321
Mo         -0.040986785062021        2.729426685081854        9.911869213380257       -0.255017294935764        0.532417081327811       -1.840908114527487
Mo          3.527154822934069        0.680649817959722        9.903239317480766        0.213958558885401       -0.737112722717226       -2.512311124405759
Mo          2.332606663760185        2.740251072767490       10.032314730336482        0.584613069915815        1.187856361658569        0.690765996433429
S           1.159716297116730        2.042648046420084        7.797916794466821        0.326302190359529       -0.203299017528472       -0.742082667347570
S           1.184885561257383        2.094473931374786       12.160220491162642        0.079348906980211        0.270757338408347        0.014767908933145
S           0.019370756216105        4.104940211354894        7.675424856969538        0.075058762329310        0.163361540067500       -1.177071607521766
S          -0.018722469931530        4.107516271349529       12.303785055019869       -0.054617197516300        0.275178095158172        0.797203801308540
S           3.604074512644909        2.052900081792985        7.855817871755958       -0.419290291480997        0.173882756012576       -0.400249978516686
S           3.568324798703152        2.023574856456123       12.239599017799089       -0.255569825251884       -0.235841741884771        0.457201224525188
S           2.384117897319079        4.121812265310175        7.689317451704790       -0.059633679134646       -0.035675872067907       -0.835815360277081
S           2.377768393511375        4.146846746650814       12.434461250919412        0.104435171728409        0.036515851845834        1.230341803490297
