# total energy = -38803.10953521396 eV 

 CRYSTAL
 PRIMVEC
       12.740577282373799        0.000000000000000        0.000000000000000
       -6.370288641186900       11.033658440967770        0.000000000000000
        0.000000000000000        0.000000000000000       19.999979849788435
 PRIMCOORD
48 1
Mo          1.540195647088886        0.881725665461690        9.999991198951946        1.164973790414080        0.980781163230673        0.000000000000000
S           1.590438113601927        2.757175589101232        8.497771390568632       -0.038212780690131        0.013655392098406       -0.666252573725397
S           1.590438113601927        2.757175589101232       11.502209733277533       -0.038212780690131        0.013655392098406        0.666252573725397
Mo         -0.008626644877895        3.738410259369173        9.999991198951946        0.228104774796499       -0.433907533701603        0.000000000000000
S          -0.002135320752526        5.515592110429766        8.339542339125646        0.032554551436123        0.022461424358587        0.796819678324695
S          -0.002135320752526        5.515592110429766       11.660440058778246        0.032554551436123        0.022461424358587       -0.796819678324695
Mo         -1.537968594179927        6.409802267570454        9.999991198951946       -1.136662075309562       -0.248006150594075        0.000000000000000
S          -1.594706206991522        8.274006083642846        8.479664482134922        0.037794204908538        0.009692549026110       -0.411901194805805
S          -1.594706206991522        8.274004809585115       11.520320463884428        0.037794204908538        0.009692549026110        0.411901194805805
Mo         -3.237519559743560        9.156966311043197        9.999991198951946        1.367115039671966        0.826983874084237        0.000000000000000
S          -3.187277093230519       11.032421330913650        8.497776486799545       -0.167610804159880       -0.076968578610438       -0.750976631375137
S          -3.187277093230519       11.032421330913650       11.502209733277533       -0.167610804159880       -0.076968578610438        0.750976631375137
Mo          4.769089836012279        0.979996286156095        9.999991198951946        0.926928869246462       -0.794345504647623        0.000000000000000
S           4.775581160137649        2.757178137216688        8.339542339125646       -0.038412812605414        0.002654922310033        0.803597366395077
S           4.775581160137649        2.757178137216688       11.660440058778246       -0.038412812605414        0.002654922310033       -0.803597366395077
Mo          3.239747886710247        3.651388294357375        9.999991198951946       -0.372680541226333        0.174617577624243        0.000000000000000
S           3.183010273898652        5.515590836372038        8.479664482134922        0.002564162327906       -0.001208161915054       -0.400935949146472
S           3.183010273898652        5.515590836372038       11.520320463884428        0.002564162327906       -0.001208161915054        0.400935949146472
Mo          1.540198195204343        6.398551063772389        9.999991198951946        0.337496521412842        0.217380184500539        0.000000000000000
S           1.590438113601927        8.274004809585115        8.497776486799545       -0.042395453180894        0.003031074870519       -0.577081534061875
S           1.590438113601927        8.274004809585115       11.502209733277533       -0.042395453180894        0.003031074870519        0.577081534061875
Mo         -0.008630467051080        9.255239479853058        9.999991198951946       -0.053236000281214       -0.380691845144434        0.000000000000000
S          -0.002135320752526       11.032421330913650        8.339543613183375        0.060268741899103        0.336751158273506        1.292547872486640
S          -0.002135320752526       11.032421330913650       11.660440058778246        0.060268741899103        0.336751158273506       -1.292547872486640
Mo          8.017463093542693        0.892973047086569        9.999991198951946       -2.097535177871455        0.248864128102169        0.000000000000000
S           7.960726754788827        2.757176863158960        8.479664482134922        0.056108180905403        0.035581255429315       -0.407722893192369
S           7.960726754788827        2.757176863158960       11.520320463884428        0.056108180905403        0.035581255429315        0.407722893192369
Mo          6.317913402036790        3.640137090559311        9.999991198951946        0.315600997112786        0.139030665765446        0.000000000000000
S           6.368155868549830        5.515590836372038        8.497776486799545        0.015364405132959       -0.023312202774614       -0.575471508543240
S           6.368155868549830        5.515590836372038       11.502209733277533        0.015364405132959       -0.023312202774614        0.575471508543240
Mo          4.769086013839095        6.496824232582251        9.999991198951946        0.022809037661237       -0.404358860313765        0.000000000000000
S           4.775581160137649        8.274007357700572        8.339543613183375        0.010471593631901       -0.039019850332896        0.743004408242541
S           4.775581160137649        8.274007357700572       11.660440058778246        0.010471593631901       -0.039019850332896       -0.743004408242541
Mo          3.239749160767976        9.168220062956717        9.999991198951946       -0.433953299358312        0.213893509946369        0.000000000000000
S           3.183010273898652       11.032421330913650        8.479659385904009        0.062809250067361       -0.477937180781641       -1.191073584481099
S           3.183010273898652       11.032421330913650       11.520330656346253        0.062809250067361       -0.477937180781641        1.191073584481099
Mo         11.095631156984693        0.881723117346233        9.999991198951946        1.289542251548786        0.908353926162179        0.000000000000000
S          11.145871075382276        2.757175589101232        8.497776486799545       -0.172427253862944        0.136618969923096       -0.704408790120719
S          11.145871075382276        2.757175589101232       11.502209733277533       -0.172427253862944        0.136618969923096        0.704408790120719
Mo          9.546802494729269        3.738410259369173        9.999991198951946        0.026364874921333       -0.451739427640429        0.000000000000000
S           9.553296366970095        5.515592110429766        8.339543613183375        0.335830702930690        0.129481327249378        1.047543486173955
S           9.553297641027823        5.515592110429766       11.660440058778246        0.335830702930690        0.129481327249378       -1.047543486173955
Mo          8.017465641658150        6.409806089743638        9.999991198951946       -0.380877993096445        0.249537757431269        0.000000000000000
S           7.960726754788827        8.274006083642846        8.479659385904009       -0.394905423988442       -0.369769794037501       -0.836169915561367
S           7.960726754788827        8.274004809585115       11.520330656346253       -0.394905423988442       -0.369769794037501        0.836169915561367
Mo          6.317917224209974        9.156963762927740        9.999991198951946        0.373078548173450        0.099640833522407        0.000000000000000
S           6.368155868549830       11.032421330913650        8.497782857088186       -0.548336587881200       -0.374729711361038       -1.188811269799133
S           6.368155868549830       11.032421330913650       11.502200814873435       -0.548336587881200       -0.374729711361038        1.188811269799133
