# total energy = -38802.41310129946 eV 

 CRYSTAL
 PRIMVEC
       12.740577282373799        0.000000000000000        0.000000000000000
       -6.370288641186900       11.033658440967770        0.000000000000000
        0.000000000000000        0.000000000000000       19.999979849788435
 PRIMCOORD
48 1
Mo          1.557809495181768        0.939801038887934        9.999991198951946        1.723504035551319       -1.291456952928101        0.000000000000000
S           1.598065897220884        2.698357440019425        8.407599954852630       -0.120965058444883        0.870482588124355        0.453448954895843
S           1.598067171278613        2.698356165961696       11.592390087397630       -0.120965058444883        0.870482588124355       -0.453448954895843
Mo         -0.034305278390520        3.692336509742925        9.999991198951946        1.038079508320963       -0.988740530841721        0.000000000000000
S          -0.062244090313037        5.525102951371058        8.488515361172986        1.042388422033324       -0.284913324515821       -1.236759022736482
S          -0.062242816255309        5.525102951371058       11.511470858904090        1.042388422033324       -0.284913324515821        1.236759022736482
Mo         -1.546506055016846        6.405896006575678        9.999991198951946       -2.637811353742242        1.544357714796250        0.000000000000000
S          -1.573242156443907        8.328222336210258        8.446420493832024       -0.338157809441256       -0.813646013368059       -0.325197386837719
S          -1.573242156443907        8.328222336210258       11.553570822475967       -0.338157809441256       -0.813646013368059        0.325197386837719
Mo         -3.178433858538824        9.191898425836008        9.999991198951946        0.008435021908313        0.367196375734081        0.000000000000000
S          -3.137556990386055       10.996671271059309        8.385878544643912       -0.707167327934426        0.424565683303314        0.695227376631346
S          -3.137556990386055       10.996671271059309       11.614110223548622       -0.707167327934426        0.424565683303314       -0.695227376631346
Mo          4.743411202499655        0.933922536529846        9.999991198951946        0.434755741013320       -0.608170298931129        0.000000000000000
S           4.715473664634866        2.766687704100252        8.488515361172986        1.082773528754587       -0.226724091782275       -1.246184948245693
S           4.715473664634866        2.766687704100252       11.511470858904090        1.082773528754587       -0.226724091782275        1.246184948245693
Mo          3.231210425873329        3.647482033362599        9.999991198951946       -2.520076116531005        1.547162532487529        0.000000000000000
S           3.204474324446267        5.569807088939451        8.446420493832024       -0.391280166911988       -0.813706691429764       -0.299985395088785
S           3.204473050388539        5.569807088939451       11.553570822475967       -0.391280166911988       -0.813706691429764        0.299985395088785
Mo          1.599283896409079        6.433483178565202        9.999991198951946       -0.487528428297955       -0.067831388115189        0.000000000000000
S           1.640159490504119        8.238254749730775        8.385878544643912       -0.636702871895836        0.472133941244575        0.781198934092075
S           1.640159490504119        8.238254749730775       11.614110223548622       -0.636702871895836        0.472133941244575       -0.781198934092075
Mo         -0.054613758578624        9.223400777224406        9.999991198951946        2.237892790571056       -1.310943609600548        0.000000000000000
S          -0.047662499613360       10.995510604468885        8.457275465676606        0.442765245158405        0.740901502027767       -0.340185896520623
S          -0.047661225555632       10.995510604468885       11.542710754400471        0.442765245158405        0.740901502027767        0.340185896520623
Mo          8.008926906763504        0.889066786091793        9.999991198951946       -2.377682446328679        1.608567959601881        0.000000000000000
S           7.982190805336442        2.811393115726373        8.446420493832024       -0.406281789226871       -0.815061663400892       -0.303502408673807
S           7.982190805336442        2.811393115726373       11.553570822475967       -0.406281789226871       -0.815061663400892        0.303502408673807
Mo          6.376999103241526        3.675069205352123        9.999991198951946       -0.453375678423021       -0.057429471410076        0.000000000000000
S           6.417875971394293        5.479840776517698        8.385878544643912       -0.637143816284922        0.469387230510691        0.780146323987748
S           6.417875971394293        5.479840776517698       11.614110223548622       -0.637143816284922        0.469387230510691       -0.780146323987748
Mo          4.723102722311552        6.464986804011327        9.999991198951946        2.310960489723057       -1.303409502642298        0.000000000000000
S           4.730053981276814        8.237091535024895        8.457275465676606        0.665830912618633        0.595651077827109       -0.519994790856261
S           4.730055255334543        8.237091535024895       11.542710754400471        0.665830912618633        0.595651077827109        0.519994790856261
Mo          3.199565380019369        9.180566956401066        9.999991198951946       -0.718072409752916        0.708623858525781        0.000000000000000
S           3.155323725406326       11.086040050406522        8.483262421159464        0.759607314321406       -0.850176777618888       -1.025267952656948
S           3.155323725406326       11.086040050406522       11.516719976744428        0.759607314321406       -0.850176777618888        1.025267952656948
Mo         11.154720680362614        0.916653958081317        9.999991198951946        0.634185503666364       -0.022741160507465        0.000000000000000
S          11.195591178226740        2.721425529246890        8.385878544643912       -0.723893647020149        0.427793704763944        0.738033435170473
S          11.195591178226740        2.721425529246890       11.614110223548622       -0.723893647020149        0.427793704763944       -0.738033435170473
Mo          9.500819203201726        3.706571556740521        9.999991198951946        2.222542012290937       -1.346178280168937        0.000000000000000
S           9.507770462166990        5.478677561811817        8.457275465676606        0.652655031473956        0.612546061355537       -0.534236394737243
S           9.507771736224717        5.478677561811817       11.542710754400471        0.652655031473956        0.612546061355537        0.534236394737243
Mo          7.977281860909543        6.422152983187988        9.999991198951946       -0.717349415221073        0.665638079795417        0.000000000000000
S           7.933040206296500        8.327620980962530        8.483262421159464        0.707072197074973       -0.890713579494414       -1.007860805150059
S           7.933038932238772        8.327622255020257       11.516719976744428        0.707072197074973       -0.890713579494414        1.007860805150059
Mo          6.412623031380771        9.169794798308818        9.999991198951946       -2.176305072161158        1.257983745922179        0.000000000000000
S           6.427082312538538       11.043380775491949        8.399288002233611       -0.652577641234238       -0.269834054850790        0.489776087685356
S           6.427081038480808       11.043380775491949       11.600700765958923       -0.652577641234238       -0.269834054850790       -0.489776087685356
