# total energy = -9674.075890663047 eV 

 CRYSTAL
 PRIMVEC
        4.936959144545499        0.000000000000000        0.000000000000000
       -2.468479572272750        4.275530043155016        0.000000000000000
        0.000000000000000        0.000000000000000       19.999922649061634
 PRIMCOORD
12 1
Mo          1.208134627267762        0.716236753333655        9.877435378785572        1.749510498531902        0.126120379695945       -1.572052621976909
Mo          0.037119514720094        2.850653529219332       10.142899621555099        0.214046747763218        0.004555482615646        4.417680937740350
Mo          3.751661902888576        0.708319845649462        9.845786508493548       -1.772742997072920        0.827054322342318       -1.813851612546888
Mo          2.495454129646717        2.878630782995557        9.869910959353369        0.520810088032816       -1.537955922175923       -2.413025360388500
S           1.224532243370455        2.137158762994558        7.941420673737659       -0.128669115397993        0.263621752618076       -0.775519621782728
S           1.260625364284398        2.143957943128426       12.091835336076118        0.113800676286345       -0.038897979988624        0.699310033164467
S           0.027825689130487        4.266402099392666        7.793142068006722        0.144078514856369       -0.050092053931506       -0.910412352272398
S           0.013840271265819        4.296416342511930       11.911550917907006       -0.118685774474474        0.859768025135202        0.609474363036928
S           3.697931001734830        2.098095073763341        7.818645905251530       -0.031469545417497        0.091855529673115       -0.691191514196658
S           3.708794780332402        2.158047037135129       11.926391417095509       -0.667290528535159       -0.263219631904063        0.760174499932091
S           2.481071286570913        4.310259082257321        7.910108010363380       -0.043968969018333       -0.217747595306372        1.020100547215631
S           2.518086137757142        4.261796903902634       11.979756983272560        0.020580661556157       -0.065062565884243        0.669312187853752
