# total energy = -9375.33518529752 eV 

 CRYSTAL
 PRIMVEC
        4.363648512978900        0.000000000000000        0.000000000000000
       -2.181824256489450        3.779028703452552        0.000000000000000
        0.000000000000000        0.000000000000000       19.999988775209427
 PRIMCOORD
12 1
Mo          1.123756437872214        0.614485929043730        9.908048386152585      -16.084679179331967       -1.002354271050313       11.784279164671355
Mo         -0.024397595200916        2.516519151988891        9.908980897839809        3.685479281364779      -16.798170909647002       25.817175710209728
Mo          3.244502269760647        0.624275774482598       10.131473299125023       29.765524696182041       13.139339324677604      -13.733542099447147
Mo          2.215642532465036        2.489062202815524        9.943971249805982      -16.746140757286962       14.106137537120837       32.318098542743932
S           1.081065991740039        1.875027038663186        8.997647305944259        1.613601924729532        4.038085668583935      -87.374307234799659
S           1.092950388465137        1.856299131975183       10.966729733750745       -2.978723073009448        1.950975033135516       74.467581116325320
S           0.044884488604501        3.752907903453860        9.068594121657378       15.971336159612719       11.535140185518497      -96.717560684709881
S           0.022364134993868        3.758776137974114       10.950636598034880      -19.975692024980638      -13.112070192370606       92.017878198084261
S           3.230541649073075        1.921287385643829        9.085474023200135        8.679498704021546      -26.703800462520675      -99.613744367401409
S           3.306768043122046        1.894791311873021       11.184555649316181        1.731104219890325        9.699223870007984       65.235334580758703
S           2.202219076909410        3.750882297814135        8.958806034165383      -15.650629977782906        7.538079314408039      -74.605364282279780
S           2.214276710480474        3.774182435414037       11.054550341898702        9.989319769480549       -4.390585354974245       70.404171355844554
