# total energy = -9539.88577926483 eV 

 CRYSTAL
 PRIMVEC
        4.013280256416000        0.000000000000000        0.000000000000000
       -2.006640128208000        3.475601034062666        0.000000000000000
        0.000000000000000        0.000000000000000       19.999977480556058
 PRIMCOORD
12 1
Mo          0.974372674942497        0.576120427289414        9.994518237960508       11.151111046980278        5.546446894604879       -6.387690113189834
Mo          0.010342223220784        2.300329168076343        9.908574242597384        2.039001417160431        5.773866727213315       -2.000498101683321
Mo          2.993191503416617        0.592554809939438       10.157455409730870       -7.644864475475369        1.160007445329769       -9.772721972021403
Mo          1.980831926863065        2.341647092300223       10.197286413619747        0.248937147464560      -11.640989207506722      -12.048940157651348
S           0.985597017163641        1.769629040088917        8.254706264864659        2.921611904312893       -1.046224509663160      -19.763568206130525
S           1.015792536484889        1.749235957793965       11.692867407415219       -4.222026327545007       -1.303630103392057       25.898039768959553
S          -0.021096610323902        3.473560682380304        8.243687001264616        0.089051226202698        1.988099208260988      -18.557866066569858
S          -0.031840964226379        3.479436124675697       11.593614973393796       -1.761937416991210       -3.465792559188150       28.027902212646168
S           3.007077051775791        1.717641007647304        8.506220545174378       -6.121501112918681       -1.833428772091031      -26.445527121087306
S           3.051053774169546        1.720525753495616       11.649454952225517        3.617304393713835        2.329379366775751       28.672051259732868
S           1.989485763079975        3.477445537668515        8.562479109136842       -2.873280028391699       -2.883342559327952      -28.125456595021383
S           2.039782599221534        3.464327729822394       11.520403912300203        2.556592482597701        5.375607811873938       40.504275349126829
