# total energy = -9681.99633513693 eV 

 CRYSTAL
 PRIMVEC
        5.191810907663900        0.000000000000000        0.000000000000000
       -2.595905453831950        4.496238041309629        0.000000000000000
        0.000000000000000        0.000000000000000       20.000080883695549
 PRIMCOORD
12 1
Mo          1.277720239808809        0.767873505873308       10.131365222032771        1.109689648439885        0.329569035495232        4.002956156181806
Mo         -0.017531707072999        3.006955660462243        9.886343417237571        0.255324027679892       -0.290382320492647       -2.074499111699686
Mo          3.910398771118651        0.710790583305725        9.884657117054761       -1.297812722781288        0.973248856045440       -1.085556749169666
Mo          2.580401148918393        2.997629091347715       10.014006413189392       -0.055061227230558       -0.694301521969480        1.460567225121306
S           1.307462047774452        2.236063116546128        7.893436168646429       -0.448753089984896        0.156387933848731        0.259198167653509
S           1.360054573087997        2.210034491741646       12.202984996613916       -0.044469048806539        0.043265000658381       -0.930331725800141
S           0.068794090432001        4.451080189215859        8.047937711904325       -0.692585309842861        0.038847329233726        0.188974366978292
S          -0.022932228779151        4.533147144233302       12.157260198769029       -0.261914025135678       -0.359100996705058       -0.553689627053666
S           3.868543949124337        2.259951676894471        8.131957307004141       -0.016614990269120        0.203152464582828        0.748725886662564
S           3.883996335928817        2.221792385904232       12.013538931679806        0.363333291508995        0.470833476684808       -0.583710869413597
S           2.568275155362453        4.521753715196434        8.128232182677893        1.223014413318534       -0.468877123415678       -0.177391799174238
S           2.615662371059974        4.526424268288968       11.980922418014588       -0.134150452675505       -0.402642133966284       -1.255242434507346
