# total energy = -9648.084440468565 eV 

 CRYSTAL
 PRIMVEC
        5.956207443844399        0.000000000000000        0.000000000000000
       -2.978103721922200        5.158224551555346        0.000000000000000
        0.000000000000000        0.000000000000000       19.999943953578928
 PRIMCOORD
12 1
Mo          1.508316022696726        0.893064809818863        9.883389937249609        2.239910593233184       -8.840485315038322        7.167792728404320
Mo         -0.044044962805741        3.445361048442860        9.903558251275211       -0.535169191380744        2.014954906995012        1.519294589986839
Mo          4.499902215788811        0.841153483842038        9.970050373074567       -6.986072218014537        1.634560024398330       -0.445595002561486
Mo          2.983735316060355        3.387381538322246        9.885971357555771        7.109228628662443        4.622365009160372        3.286105535196784
S           1.555135386929809        2.543294622314115        9.163380352228666       -6.458239672781069        4.886025328343091      -28.017423162811767
S           1.432712690370520        2.592729952856534       10.977869262368770        0.258322706636110        0.813108909677796       23.884538307230724
S          -0.044457132360855        5.157235821119668        8.842255001618261        3.297695044982474        0.310559061561775      -19.190531019147560
S          -0.000163795704706        5.162622615131880       11.043186224439456       -0.906553381814207       -0.230516470638849       17.559545858181217
S           4.498840819622319        2.555193933545427        8.883804313505031       -1.026388182804615       -1.849630328787176      -21.247741511249025
S           4.427650441391258        2.559234029054587       11.035209671430659        0.908595609967276        0.839061122357447       19.207231884300619
S           3.019902598900867        5.177818687183361        9.097944861629847       -1.329641194360397       -2.769590734023488      -23.612321352905848
S           2.955524335123330        5.132574144198430       11.053255788744019        3.428311514784514       -1.430411256895554       19.889103402485617
