# total energy = -9661.88646590036 eV 

 CRYSTAL
 PRIMVEC
        4.936959144545499        0.000000000000000        0.000000000000000
       -2.468479572272750        4.275530043155016        0.000000000000000
        0.000000000000000        0.000000000000000       19.999922649061634
 PRIMCOORD
12 1
Mo          1.225103449543479        0.679542804491821        9.983858938584966        0.417278659469211        0.027369405375070       -1.434523481128235
Mo         -0.053795081622626        2.864088476139384        9.978317201945215        1.671169207330600        1.592001306093780        1.344679583466906
Mo          3.743935068131448        0.714711726653905        9.864794788591878       -2.845599776505605       -2.079163094917194        6.233537754538250
Mo          2.460889984979840        2.846588930755628       10.193312886163712        4.346986882086917        2.033281481402994       -9.030763746122414
S           1.208684604516464        2.178557633901144        8.439581080346622        1.686831089232173       -0.646383336731691       -7.871098771886676
S           1.225207619381429        2.152730425832369       11.468602993891068       -4.574819119826604       -3.004932910340916       15.895475984070124
S           0.017436846002620        4.261049448288150        8.249661199015101       -0.723142627451332        0.564798340333471       -5.445284738662517
S          -0.005895716610416        4.292092553693137       11.576141812761216        1.337570994271885        0.423264704522686        7.889772445376447
S           3.712719662852316        2.157023605504465        8.451784749656024       -2.742600566534075        1.502223228702775      -11.508664496001423
S           3.736677738188966        2.119067276209371       11.739710180962810        0.740912300665867       -1.132773794262243        5.842456848210250
S           2.480402822302741        4.251241685251595        8.356015147690558        1.109968099036609       -1.657241535285813       -8.221400935423620
S           2.481452913512786        4.261381211942663       11.737277247496378       -0.424554370444352        2.377555947996649        6.305813810673342
