# total energy = -9661.785007257484 eV 

 CRYSTAL
 PRIMVEC
        8.918435848296600        0.000000000000000        0.000000000000000
       -4.459217924148300        7.723588405521063        0.000000000000000
        0.000000000000000        0.000000000000000       20.000056148469234
 PRIMCOORD
12 1
Mo          2.293910884540368        1.294279084048196        9.846100330710943        0.381902578163797        0.324804264988790       -0.158428105118352
Mo          0.078265517473896        5.117151449079591        9.893249425510133        0.383245980165533        0.232401604318605       -0.230581776688311
Mo          6.641306784491971        1.228131937204965        9.927081511900646       -0.266684452071602       -0.414316490194188       -0.130981309503564
Mo          4.430538909990933        5.103706015194699       10.117944065646457       -0.684401227715159       -0.259656595551901        0.530583112623815
S           2.253778815066619        3.840141132364452        7.872700193686658       -0.213069985236023       -0.183955314255636        3.155763145114141
S           2.329430338993379        3.809190592596523       11.860897171412265        0.408261282434787        0.281560090275317       -3.232938440511066
S           0.041417216079489        7.676059385354735        8.076359811031189        0.021626329678847        0.095908104285814        3.080338000420721
S           0.062623472839569        7.730735640009888       11.988956099914372        0.209704409694833        0.096783822413644       -3.131330712191860
S           6.730119244200063        3.795840585975208        7.793989646263932        0.193826040810397       -0.139549514615112        3.031387773913082
S           6.788692855320920        3.814101975218181       12.190624230533979       -0.255868330462222        0.060041199167709       -3.018943629054901
S           4.395039076096788        7.754988434455746        7.937160864310976       -0.024612410223949        0.258614012754382        3.060764440422612
S           4.437742330625602        7.718243586917178       12.210450805268328       -0.153930472349671       -0.352635183587423       -2.955632242315886
