# total energy = -9686.905503112317 eV 

 CRYSTAL
 PRIMVEC
        5.701408598450900        0.000000000000000        0.000000000000000
       -2.850704299225450        4.937562381473441        0.000000000000000
        0.000000000000000        0.000000000000000       19.999982625323110
 PRIMCOORD
12 1
Mo          1.364566581840341        0.832857206934829        9.806722683427827        0.844041608515460        2.799466194769069       12.745640005720769
Mo          0.047482471089619        3.261356805641774       10.115707101575714       -0.700226374740388       -0.219131620756199       -7.677682050882358
Mo          4.287625747166151        0.788981446924590        9.828813361183386        0.549360658727690        2.772789959115851        7.999906469806954
Mo          2.879259804190791        3.307809032197652       10.084412639919679       -2.011574933269689       -0.833230629114699       -4.935608303621308
S           1.415335344846107        2.510181399133512        8.520116592621845        0.774262608885793        2.091277624202893       -6.307379098976992
S           1.406609909127037        2.495451239878554       11.561347713686027        1.897667299044066       -2.537883842089321        4.928448806560958
S          -0.058796916453245        4.955705974056292        8.657822714500227        1.381443032657748       -4.557358236239645      -12.472558903237458
S           0.019856865866685        4.888887745845886       11.384967226861770       -0.831545784460657        4.382692578964814        6.899701110944106
S           4.311630387788210        2.485014811439090        8.489607214929814       -0.147395496526109        1.659015854369828       -5.085462804309063
S           4.301494993722743        2.470166633026144       11.370760456916150       -0.724599158042687       -3.545336870095887        9.039874197132844
S           2.868245823060304        4.951001171680850        8.508540452603549       -1.209352850569785       -3.775415738781252       -9.958071339033673
S           2.837657195788755        4.950550190260712       11.467124524765449        0.177919646888987        1.763114725654549        4.823191652784789
