# total energy = -9676.512359480106 eV 

 CRYSTAL
 PRIMVEC
        5.191810907663900        0.000000000000000        0.000000000000000
       -2.595905453831950        4.496238041309629        0.000000000000000
        0.000000000000000        0.000000000000000       20.000080883695549
 PRIMCOORD
12 1
Mo          1.300030489641222        0.785454535149930        9.802918284486683       -2.132879377483431        1.781290119129129       12.343874618324039
Mo         -0.011197697765649        2.992117984069230       10.181245545328151        0.585933331978765       -0.992925003105500       -2.143686243117296
Mo          3.840867443537763        0.758347571219926        9.986582229612928        3.444955301421901        1.810445156447177        4.610140436610225
Mo          2.629238437402425        3.008726587162847        9.927741879053102       -2.890418752608673       -1.254841599345488        5.780142021501614
S           1.340505847477370        2.243242352669246        8.310649054824118       -1.659681770385999        2.669407140381337       -5.570155304553594
S           1.318706991019361        2.256453953885978       11.739167300642489        1.217289078242047       -0.812891651363639        2.653358050170747
S           0.019042004866039        4.497952896452430        8.562621656062499        1.633503557637539       -4.744394247678974      -13.057727074573704
S           0.041390154918078        4.490032788912789       11.759128256039185       -1.381644864346047        1.252199789667434        3.165756256234037
S           3.888819528262037        2.254733387751178        8.422968692000518        2.560939705764274        0.010696565258986       -6.858395034659165
S           3.862795576087372        2.227898993893827       11.782663773245808       -0.671587100946834        0.210565215417668        2.544432187655293
S           2.625432840007107        4.469195455834880        8.394322356136392       -2.623771581549559        0.632296256219712       -8.438833570452074
S           2.555515241694688        4.539078269014218       11.538067696945037        1.917362729386448       -0.561847741027841        4.971093656859878
