# total energy = -9672.58498616029 eV 

 CRYSTAL
 PRIMVEC
        8.376928769394899        0.000000000000000        0.000000000000000
       -4.188464384697450        7.254629737515218        0.000000000000000
        0.000000000000000        0.000000000000000       19.999984452360476
 PRIMCOORD
12 1
Mo          2.156825441806520        1.158623070409532       10.043950997590514       -0.104460882771504       -0.032903450290928       -0.435158633058626
Mo          0.012501728495445        4.785579406615811       10.093650478286458       -0.077929914511775       -0.248051144919492       -0.118604784688724
Mo          6.205300456759981        1.244418737172797       10.161787579203839        0.352265973008573        0.182810401506597        0.442809468152529
Mo          4.132611212127509        4.853806978363901       10.041257814991155       -0.048004317232159        0.045953090214006       -0.146502809109836
S           2.023250286421257        3.652895496140710        8.135266102098134        0.089001603889524        0.076140168801904        3.404635243639670
S           2.134315796510279        3.624552157649462       11.960728006274131       -0.003436023799271        0.116441200412245       -3.372222102940571
S          -0.040480670585224        7.271779823784800        8.049771167077688       -0.206410310853449        0.153403395966215        3.517893931137564
S           0.018583378782026        7.186080491702382       11.935522665299899        0.048329819037747        0.168352053532321       -3.398502645640551
S           6.346412334959068        3.603171722351336        8.266997495461252       -0.068267961626949        0.023981461226388        3.233685346312988
S           6.359032178150162        3.562743826417359       11.954719235267847        0.032137518317115       -0.220520531304213       -3.195025707693858
S           4.279586940465174        7.220458569679102        8.179205606572241        0.168388563213516       -0.232045506371733        3.268688617493518
S           4.073318472604855        7.319077639002557       11.969193730488483       -0.181614066671367       -0.033561138773309       -3.201696180714533
