# total energy = -9695.704834455992 eV 

 CRYSTAL
 PRIMVEC
        5.828834480010100        0.000000000000000        0.000000000000000
       -2.914417240005050        5.047916380550747        0.000000000000000
        0.000000000000000        0.000000000000000       20.000054246341612
 PRIMCOORD
12 1
Mo          1.445471096010128        0.880596997902006        9.827669070480358        0.639666583833444        0.777909463238447        5.813243961045238
Mo         -0.057963095836116        3.411281080283863        9.958023959024407        1.209080313512974       -2.312801143298258        1.275204745477058
Mo          4.352193691618117        0.885235584381198       10.165667444123047       -1.431967803444550        1.186374377134550       -4.857950669055913
Mo          2.921689293902311        3.389843792833282        9.810085225504510       -0.181317618344477       -2.578187701914403        4.752041997447706
S           1.470287358808772        2.513256450170075        8.226690499378039       -0.795343864451018        1.058022536008354       -0.441522116224741
S           1.420355231119213        2.496692068344782       11.692743388620213        0.309003543454502        0.605833165113755       -1.846639363143887
S          -0.003189538227462        5.053795343007285        8.406871430824111        1.209319940434623        0.304609011968633       -2.177302403522829
S           0.023635923816441        5.045449034915358       11.665634062337134       -1.767613129754523       -0.202911037888162        0.371000838780910
S           4.399211402067670        2.485141649939194        8.200605882196545       -0.205738481297365        0.266530700033891        0.931406704511960
S           4.376931265151280        2.497577468302296       11.802729997957314       -0.389828007197959        1.545700088356262       -1.217542074906106
S           2.857977218618560        5.097168866139936        8.484596607081254       -1.324884651387745        0.831773584302482       -4.657214785413623
S           2.851718799037373        5.067269276791277       11.535659796684628        2.729623431752526       -1.482853300165982        2.055273165004226
