# total energy = -38803.5656305947 eV 

 CRYSTAL
 PRIMVEC
       12.740577282373799        0.000000000000000        0.000000000000000
       -6.370288641186900       11.033658440967770        0.000000000000000
        0.000000000000000        0.000000000000000       19.999979849788435
 PRIMCOORD
48 1
Mo          1.590438113601927        0.918231241548875        9.999991198951946       -0.015998182345261       -0.009236435121597        0.000000000000000
S           1.602520003038802        2.736251739030389        8.438994011334129       -0.128780187104166        0.198772074170662       -0.069650958635051
S           1.578356224165052        2.778101987287531       11.560989660627493        0.107805889478218       -0.210980448763659        0.069649673082897
Mo         -0.002132772637069        3.676645214761953        9.999991198951946       -0.015759840975766       -0.008981638684522       -0.000008484644221
S           0.009947842742077        5.494666986301196        8.438994011334129       -0.128809754803725        0.198782358587900       -0.069667413702632
S          -0.014215936131673        5.536515960500608       11.560989660627493        0.107754210281596       -0.210941110867723        0.069660214610566
Mo         -1.594706206991522        6.435059187975031        9.999991198951946       -0.015411199231392       -0.008897563573600        0.000000000000000
S          -1.582623043496919        8.253080959514273        8.438994011334129       -0.128803327042952        0.198788529238243       -0.069660214610566
S          -1.606788096428398        8.294931207771414       11.560989660627493        0.107745982747806       -0.210943681972032        0.069667413702632
Mo         -3.187277093230519        9.193474435245838        9.999991198951946       -0.015658282355539       -0.009157502219294        0.000008484644221
S          -3.175196477851372       11.011491110554168        8.438994011334129       -0.128811554576742        0.198852806845982       -0.069649673082897
S          -3.199360256725122       11.053340084753581       11.560989660627493        0.107751639177287       -0.210912828720318        0.069650958635051
Mo          4.775582434195377        0.918231241548875        9.999991198951946       -0.085835803153185       -0.049971726249820       -0.000010027306807
S           4.726481523406837        2.842220216518805        8.438994011334129        0.544406654944066       -0.803561885155606       -0.155331209977509
S           4.824683344983917        2.672132235741386       11.560989660627493       -0.423701792255308        0.873250896134438        0.155331209977509
Mo          3.183011547956380        3.676646488819681        9.999991198951946       -0.086194729314797       -0.049350290338204        0.000010027306807
S           3.133909363110112        5.600635463789611        8.438994011334129        0.544400227183292       -0.803564970480777       -0.155317840235099
S           3.232109910629464        5.430547483012193       11.560989660627493       -0.423676852543506        0.873220814214017        0.155315526241221
Mo          1.590438113601927        6.435059187975031        9.999991198951946       -0.085886453908083       -0.049225077558329       -0.000011827079824
S           1.541337202813387        8.359049437002691        8.438994011334129        0.544385057667865       -0.803570626910258       -0.155329153094061
S           1.639539024390468        8.188962730282999       11.560989660627493       -0.423720047095906        0.873236497950305        0.155329153094061
Mo         -0.002132772637069        9.193474435245838        9.999991198951946       -0.085573550513612       -0.049767066346780        0.000011827079824
S          -0.051234957483338       11.117460862100311        8.438994011334129        0.544393028091225       -0.803525118363979       -0.155315526241221
S           0.046966864093743       10.947380525669262       11.560989660627493       -0.423707448684789        0.873246782367543        0.155317840235099
Mo          7.960726754788827        0.918231241548875        9.999991198951946       -0.009328223545448       -0.006066520618363       -0.000006427760774
S           7.953948767674604        2.768916031066939        8.438994011334129        0.055722258148541       -0.122710066939769       -0.065194206424892
S           7.967504741903049        2.745437695250981       11.560989660627493       -0.078410968128091        0.109625974218943        0.065198063081356
Mo          6.368154594492102        3.676646488819681        9.999991198951946       -0.009554480724688       -0.005516304296122        0.000000000000000
S           6.361376607377879        5.527330004280017        8.438994011334129        0.055733313897072       -0.122718808694421       -0.065198063081356
S           6.374932581606324        5.503852942521787       11.560989660627493       -0.078408911244643        0.109611833145240        0.065194206424892
Mo          4.775582434195377        6.435060462032760        9.999991198951946       -0.009918034874057       -0.005045277986614        0.000006427760774
S           4.768804447081154        8.285743977493095        8.438994011334129        0.055760310492322       -0.122748376393981       -0.065190349768428
S           4.782360421309599        8.262266915734864       11.560989660627493       -0.078411739459384        0.109624688666788        0.065171323596537
Mo          3.183010273898652        9.193475709303566        9.999991198951946       -0.009641384050350       -0.005566440830158        0.000000000000000
S           3.176232286784429       11.044160498821631        8.438994011334129        0.055732028344917       -0.122718808694421       -0.065171323596537
S           3.189788261012875       11.020680888947943       11.560989660627493       -0.078423052318346        0.109664026562724        0.065190349768428
Mo         11.145871075382276        0.918231241548875        9.999991198951946       -0.090636054899099       -0.052647988725622        0.000016197957150
S          11.195700747191369        2.670864548301790        8.438995285391856       -0.425185062331483        0.880593970042489       -0.158589313358560
S          11.096040129515456        2.843489178016129       11.560989660627493        0.549990579283528       -0.808508175626302        0.158577486278736
Mo          9.553298915085552        3.676646488819681        9.999991198951946       -0.090330350596695       -0.052429701969742        0.000007970423360
S           9.603132409067829        5.429279795572596        8.438995285391856       -0.425190204540102        0.880574686760167       -0.158599340665367
S           9.503465421103275        5.601903151229208       11.560989660627493        0.550004977467661       -0.808513060724490        0.158599340665367
Mo          7.960726754788827        6.435060462032760        9.999991198951946       -0.090570748849637       -0.052013440182027       -0.000007970423360
S           8.010558974713375        8.187693768785675        8.438995285391856       -0.425193289865273        0.880560031465603       -0.158577486278736
S           7.910894534864277        8.360317124442284       11.560989660627493        0.550024260749983       -0.808517945822678        0.158589313358560
Mo          6.368154594492102        9.193474435245838        9.999991198951946       -0.090912448612375       -0.052169249103185       -0.000016197957150
S           6.417988088474379       10.946110290114209        8.438995285391856       -0.425171435478642        0.880563373901206       -0.158504981137207
S           6.318321100509825       11.118731097655365       11.560989660627493        0.550004463246800       -0.808490949227428        0.158504981137207
