# total energy = -9689.981637293211 eV 

 CRYSTAL
 PRIMVEC
        7.548819292434800        0.000000000000000        0.000000000000000
       -3.774409646217400        6.537466227730848        0.000000000000000
        0.000000000000000        0.000000000000000       20.000053200316945
 PRIMCOORD
12 1
Mo          1.858437027667160        1.126415187886961        9.995878523957280        0.414299006684884       -1.183773190904586        0.989105113432814
Mo         -0.076062658072502        4.361317513211408        9.875086846931314        0.480892150964597        0.430402347196405        0.890586824051953
Mo          5.660864116688432        1.120838875075639        9.809927703444805       -0.751937967276474       -0.371769598969463        1.526513479556739
Mo          3.827468032378136        4.381236582678356        9.800481110982252       -0.493460737271360       -0.151584082556783        1.567297878777273
S           1.844623443243934        3.301973584737731        8.913986272257100        0.188515167748608        0.321158696188291       -2.317476953595590
S           1.932817808801308        3.214767359625737       11.234775648593095       -0.009220494274878        0.344394794275342        1.519833236339688
S          -0.023879180067759        6.499603614805782        8.740663871538938       -0.003152173883498        0.349653473919648       -1.883123847517144
S           0.034498104166427        6.527824875730549       11.288586652037287       -0.254745272099814        0.165041242512924        0.818928604282443
S           5.676487153096055        3.257650692262200        8.902329385505723       -0.185953319414581       -0.006613137394572       -2.994463116482031
S           5.596245468663261        3.288516304585108       11.234451804245449        0.052060491390892       -0.030917529322238        1.826263361490769
S           3.745057572162626        6.546280984018624        8.979595325373438        0.395233496898340        0.168522003527181       -2.519209654378690
S           3.701651106349197        6.595990713941236       11.398608428578736        0.167469907643717       -0.034514504251287        0.575744816931344
