# total energy = -9572.069819803944 eV 

 CRYSTAL
 PRIMVEC
        4.363648512978900        0.000000000000000        0.000000000000000
       -2.181824256489450        3.779028703452552        0.000000000000000
        0.000000000000000        0.000000000000000       19.999988775209427
 PRIMCOORD
12 1
Mo          1.103711145698143        0.646521654601764       10.009562123334270       -6.323957065344054       -6.565645241318292       10.414939605550774
Mo         -0.005770925158415        2.538103502993489        9.960010276280288       -0.865120292976375        1.737899648580443       16.303812599861178
Mo          3.277398943170293        0.654021457301021       10.163790916376996        3.832586299987357       -6.786715988944747       -7.127174165411750
Mo          2.177965918474274        2.538318194500328       10.117443732790946        1.095887960506266        8.046846092744531       -5.628798594308204
S           1.067823191232851        1.890091226059692        8.716285358935298        6.280751457195224        1.078717611706285      -40.226617166751673
S           1.128628887801807        1.877469809100751       11.506930219604076       -3.653739255773918        0.005291589779468       28.399022350667039
S           0.000761020300664        3.793388161614212        8.677444523521272        3.923203071604135        4.667384017178722      -36.250500511346736
S          -0.003411064042596        3.796998644393850       11.575693901966151       -1.842029373116878       -2.155127914405187       25.853359375378769
S           3.302036102674571        1.876649879545163        8.606308325462690       -5.454162504732933       -2.447885678169420      -28.865464124080720
S           3.290627343637388        1.917263665350011       11.449894278985482        2.871510337295442        3.588668976576746       35.734678622784863
S           2.181676765169712        3.804152846130879        8.521193179392780       -1.734824607826231       -1.189577458883377      -23.691816041500413
S           2.197968446892918        3.810471845542524       11.623667853717842        1.869893973181967        0.020144602265259       25.084558049156872
