# total energy = -9678.71187336445 eV 

 CRYSTAL
 PRIMVEC
        8.185842864781000        0.000000000000000        0.000000000000000
       -4.092921432390500        7.089144566971965        0.000000000000000
        0.000000000000000        0.000000000000000       20.000036021847581
 PRIMCOORD
12 1
Mo          2.084264575713382        1.170464202200722        9.963036828613570       -0.922200865531646       -0.298686730302035       -0.045100254914531
Mo          0.050883199247479        4.725768125682433       10.138076343759755        0.331937793895613       -0.127165533597774       -0.401707023328903
Mo          6.236432683006307        1.112275956780713        9.850661577765857        0.100624795141668       -0.775887546809423        0.012623865049418
Mo          4.123877015767956        4.779728383262783        9.802387206639384       -0.629320974312711        0.420053652350500        0.178184213522439
S           2.018540443352055        3.473296512493762        8.948419614378269        0.431389137030407        0.037111062493493       -4.611094059198635
S           2.031641884857137        3.511981168704144       10.842321595686879       -0.038436466765061        0.342066916433483        4.655189269438567
S          -0.072754952797887        7.090726890397727        9.008692793975936       -0.015282386905484        0.449026912593862       -9.993852626378271
S          -0.003140089322930        7.040654908178149       10.770490005964142        0.607305636551830       -0.145580811104434       10.119886616969413
S           6.149792084956892        3.525036769489183        9.084352902406534       -0.712209777706299        0.448056320717010      -16.227589898610940
S           6.207977874624042        3.473939101158646       10.753023873043558        0.505552126618273       -0.334977096299922       16.339223905295636
S           4.167698288375988        7.087783261303552        9.173504098462578        0.461644349882507        0.061276357678012       -3.994056535724759
S           4.032185752670970        7.059456152069978       11.115013304704185       -0.121003110788664       -0.075293761263202        3.968292784990997
