# total energy = -9688.27710618764 eV 

 CRYSTAL
 PRIMVEC
        7.548819292434800        0.000000000000000        0.000000000000000
       -3.774409646217400        6.537466227730848        0.000000000000000
        0.000000000000000        0.000000000000000       20.000053200316945
 PRIMCOORD
12 1
Mo          1.923024725533232        1.138859416490539        9.976013805989238       -0.126437653967742       -0.065452345297570       -0.259790807196859
Mo          0.048873320745011        4.367527171961365       10.001196667148802       -0.400611732893039        0.025238474123322        0.019564818243457
Mo          5.706426525291780        1.034816304828698       10.098461693967964       -0.307611033360454        0.554087376890352       -0.808788683106473
Mo          3.871685241383573        4.296600730535435        9.944090604083462       -0.438147541818468        0.359704949107370        0.351881078693435
S           1.792091964669809        3.315277623858718        8.400255149720097        0.382664139260284       -0.184105466747313        2.528629409237557
S           1.903320042534190        3.209353346429202       11.881010441288277       -0.031854182622204       -0.012901030093987       -3.436062622946489
S           0.002793063138201        6.595572509352436        8.129022298133268       -0.007822327751349       -0.080597178122494        3.406267123544936
S          -0.000457458449122        6.585720545293878       11.566653449729557        0.160617657548358       -0.129592141845119       -2.324738523497028
S           5.675264244370680        3.312977498620313        8.462596318964740        0.130987737264338       -0.178419212456331        1.928642678213269
S           5.574000607972314        3.311234476245690       11.626057373387514        0.361452014485703       -0.206427023031461       -2.144234145445659
S           3.830578145926619        6.519408697101414        8.126959205820645        0.106047254130492       -0.060423779488968        3.435999116670044
S           3.704616282567264        6.578148324661638       11.656190750239055        0.170715412613651       -0.021112880148232       -2.697369185299757
