# total energy = -9677.893033610386 eV 

 CRYSTAL
 PRIMVEC
        8.727297025957800        0.000000000000000        0.000000000000000
       -4.363648512978900        7.558057406905104        0.000000000000000
        0.000000000000000        0.000000000000000       19.999988775209427
 PRIMCOORD
12 1
Mo          2.096479146142906        1.250942828350308        9.847086034602013       -0.079694977620276       -0.456924316591050        0.060667777287944
Mo          0.000773238516500        5.060022233652340        9.805671519295034       -0.479296009409234        0.306701119545307       -0.204405877933730
Mo          6.598500698927772        1.310399284799051        9.920827330822846       -0.013407023422105        0.022315899854666        0.164987249322424
Mo          4.386235630411781        5.034158888915914        9.845767340021391        0.510892824490052        0.195359447420608       -0.064637305231445
S           2.217223045956437        3.821187657195846        8.861707872913980       -0.165605599908868        0.077834783652322        1.212196491936138
S           2.245541379346265        3.749973786193733       11.245984474892788       -0.011201273034949       -0.107406082758084       -1.165183078304877
S           0.109628814321271        7.512149206359458        8.653301765393513       -0.061953586553146       -0.351292038696119        1.096526365706325
S          -0.013884256838596        7.546911775873252       11.435516057135217       -0.024136755926684        0.037595972766272       -1.295087352213174
S           6.597310295613431        3.775378947836296        8.622125242227686        0.083810287178128        0.136108862828083        0.929291714106931
S           6.575953727061210        3.826410071736179       11.315246049550195       -0.018514779243440       -0.126031676597266       -0.895175473913192
S           4.394406998617185        7.557128822501541        8.711217853917175        0.430477166331812        0.085464278580456        0.834738067571383
S           4.326108917551445        7.507364902129828       11.251357871671670       -0.171370272881292        0.180273749994803       -0.673918578334727
