# total energy = -9690.493045414914 eV 

 CRYSTAL
 PRIMVEC
        7.548819292434800        0.000000000000000        0.000000000000000
       -3.774409646217400        6.537466227730848        0.000000000000000
        0.000000000000000        0.000000000000000       20.000053200316945
 PRIMCOORD
12 1
Mo          1.863282614770974        1.132587102540455       10.134470316874808       -0.486398942174773       -0.293267099527952        0.099038680893112
Mo         -0.060014623138715        4.370115662096741        9.883182955622452        1.325721802950931       -0.917402413558749       -0.794070396486502
Mo          5.637615263031591        1.152001910878668       10.068859753994611        0.995017367792605       -1.219334391720287        0.094822584046326
Mo          3.755230361041111        4.353440320279753       10.052420690221476       -0.050222923140862       -0.055261516256271        0.022711849918336
S           1.865583494891308        3.263832420380775        8.653221368383091        0.012125842144660        0.140573842572033       -0.916604857001929
S           1.855993474862199        3.253793245603766       11.234897939465633       -0.060844926374871        0.390499836754043        1.510036300478610
S          -0.024691433023625        6.543931791454818        8.861973397568367       -0.072963826537896        0.148282270402470       -2.327923093294827
S           0.037718430476580        6.482050345305083       11.143724054933536       -0.449668917339955        0.661988911448885        2.328051905620735
S           5.725528812511286        3.216009895281271        8.866301135668719       -0.492096766435148        0.483902399890208       -3.080170621530170
S           5.721743079636131        3.255772546022242       11.164263637346320       -0.653134285317254        0.400217068381524        3.108960304925831
S           3.750313060154019        6.493538893386240        8.756538283629000       -0.050985769789503        0.230834773352370       -1.060122871118818
S           3.783300645580030        6.553853959532795       11.365713693630022       -0.016548912888365        0.028966318261727        1.015269956438865
