# total energy = -9698.635023034873 eV 

 CRYSTAL
 PRIMVEC
        6.338432170797099        0.000000000000000        0.000000000000000
       -3.169216085398550        5.489240720714558        0.000000000000000
        0.000000000000000        0.000000000000000       19.999965611692456
 PRIMCOORD
12 1
Mo          1.566868038739648        0.957892392595626       10.187133255650835        0.514106447766549       -1.414445727575024       -3.522640703913839
Mo         -0.040380249830497        3.640700362423292        9.983742474938213        0.785073845396985       -0.128229199450631        0.014632925956894
Mo          4.783744063316854        0.944330049279772       10.037722464834371       -0.645770128353865       -0.082825040006712       -1.082725706214429
Mo          3.210529986287805        3.624235651016429       10.031219867270350       -0.230788750585229        0.479019358585527       -1.465115508644885
S           1.603947233095594        2.719490378329720        8.219354311362533       -0.138821120764219        0.274974977917719        3.218578565831845
S           1.625998004774580        2.695647731876049       11.661486172268745       -0.323869925682703        1.434277169335381       -0.505587093636882
S          -0.054474387605482        5.519908590929743        8.432718615095904        0.223802545955343        0.035588711631813        1.759084262538911
S           0.048656340715907        5.460464238659139       11.779832940859349       -0.272111281937751        0.071026242330225       -2.103773705368127
S           4.765240278280647        2.729448055270042        8.142413984770879       -0.047944924722608        0.089377499339579        3.390327305267502
S           4.780970999242131        2.729263606893872       11.762251397703992       -0.122817281989477        0.198900886496570       -2.244040815196032
S           3.185103365634652        5.540055297584622        8.222207239682609       -0.050725574033377       -0.350947767829071        3.225290176521473
S           3.120789195927226        5.508259186443034       11.655758764959213        0.309865634729491       -0.606717110775376       -0.684029188921568
