# total energy = -9597.28561500214 eV 

 CRYSTAL
 PRIMVEC
        4.013280256416000        0.000000000000000        0.000000000000000
       -2.006640128208000        3.475601034062666        0.000000000000000
        0.000000000000000        0.000000000000000       19.999977480556058
 PRIMCOORD
12 1
Mo          0.995928003199707        0.584503768417042        9.812381934771476       -1.407587563939753        1.809517244901863       -1.006562654584171
Mo         -0.042995074043036        2.345938492878409        9.917094035253731        1.860184454867414       -2.251283616036010        3.389184449401910
Mo          2.987973837755250        0.588525476561996        9.970004720826294        1.160714499014893       -0.087675942507524        5.806640850957474
Mo          1.978446433078652        2.299186587187342        9.938955978122531       -1.116036933648851        0.557550140174442        4.566269426666086
S           0.960746785815913        1.749167330701580        7.831255031809565        1.624552772204732       -0.492884552795592       -8.193113388699613
S           0.971796951673929        1.769322024149301       12.164110788403844        1.127178814174249       -0.139149965005409        5.246951551997493
S           0.006938961563343        3.476524489849667        7.802768367221500       -1.062506541924194        0.733555857015406       -8.511468295638348
S           0.004973658221776        3.506237211556069       12.194893851954632       -1.499144588402530       -0.261812723625882        5.829353472207102
S           3.031800864795441        1.710807996682730        7.835393927738007       -1.669142920024250        0.720459422993894       -7.861191021429857
S           3.015807541645598        1.717707628099561       12.164980466235408       -0.929902865601309        1.708424765886289        5.695714155068335
S           1.980138432034757        3.454900534500073        8.042263274491278        0.311850527256457       -1.016641383477574       -7.839500414143272
S           1.998377586816090        3.505909326559120       11.956527880420982        1.599840346023142       -1.280058990413472        2.877722382417725
