# total energy = -9693.356586209704 eV 

 CRYSTAL
 PRIMVEC
        6.656943956970200        0.000000000000000        0.000000000000000
       -3.328471978485100        5.765079890335118        0.000000000000000
        0.000000000000000        0.000000000000000       19.999962657666302
 PRIMCOORD
12 1
Mo          1.657133030040463        0.972317894215837        9.912947112150931        0.569400617047551       -0.249783297892830        0.709538914549547
Mo          0.052337559084095        3.784505258562948        9.834357894572523       -0.660357031543619        0.569237351923895        0.499452952975178
Mo          4.989077936187915        0.969192459028040       10.148096334792550        0.044350263787438       -0.438567403152216       -0.915973393783506
Mo          3.390541323939890        3.806703503881860       10.011459231603759       -0.432317305686151        0.143039017384022       -0.386515139295115
S           1.663270066674394        2.927687339083731        8.191063319629810        0.277036232242678       -0.480056284953565        2.911080661061011
S           1.730131746083807        2.842750059747956       11.761406037069882       -0.302456483440685        0.181720253279351       -3.514190769600531
S           0.041761672219657        5.754171156272831        8.013354203615304       -0.195928947025171       -0.046754760537721        4.135820028260817
S          -0.087736524269680        5.806042729279938       12.041263961020912        0.655649596663279        0.001289665921666       -4.190142577223243
S           5.019952176565946        2.897715780306264        7.909142408746519        0.182406995240430        0.001754521580831        4.199034741477793
S           4.932587109769066        2.891039531211818       11.779480305607454        0.648820229396274       -0.296816509027275       -3.221839497427637
S           3.385614519717336        5.712275013785243        8.273753214685712       -0.266869828692320        0.308393934622710        2.989108791757411
S           3.412776182450566        5.717643839086539       11.782404035393354       -0.519734337989704        0.306543510851133       -3.215374969862156
