# total energy = -9672.646528950409 eV 

 CRYSTAL
 PRIMVEC
        7.039168683922899        0.000000000000000        0.000000000000000
       -3.519584341961449        6.096096059494329        0.000000000000000
        0.000000000000000        0.000000000000000       19.999981709846463
 PRIMCOORD
12 1
Mo          1.781460843940444        0.992943022803559        9.815808190640915       -3.916160045569007        1.472703351683204       -0.457224878684836
Mo          0.061822906800290        4.072576506352354        9.913538600814766        2.108963222306506       -1.700379266280871       -0.318787109573170
Mo          5.363038440584335        0.972723714675859       10.081832453543731       -2.589997555339421        0.127519831771628       -0.674036592022535
Mo          3.532069011539255        4.108683218199667       10.021078796466529       -2.038133669455961        0.234461315980979        0.095806802776018
S           1.821085732295983        3.050076014245002        8.939568953281851        0.505617175557304        0.065372126843112       -8.150449255118373
S           1.770682468851622        2.993149553181250       10.924531459957638        0.181498109867007       -0.321026798537211        8.702124936166374
S          -0.000512451480190        6.106098718194183        9.303717115887947        2.201326802191186        0.734020455564141      -20.508216321358155
S           0.013005568060416        6.073894521465236       10.964991897635960       -0.506104142713531        0.096816989659237       20.504011537370332
S           5.269367518990505        3.070840154028838        9.141604357180332       -0.941779824848806       -0.326016540670739      -21.455580584767286
S           5.356373755674396        3.005851733071388       10.778211076192408        0.390091545389687        0.579804076415249       21.787184906433954
S           3.458004286480755        6.083755692874544        9.137444912405003        1.615910262178639       -0.275777676683158      -11.758845800841371
S           3.506164166865551        6.150891764197458       10.999645725066912        2.988768377546827       -0.687498122856002       12.234012873839911
