# total energy = -9679.294366088383 eV 

 CRYSTAL
 PRIMVEC
        6.911795720088600        0.000000000000000        0.000000000000000
       -3.455897860044300        5.985787888489730        0.000000000000000
        0.000000000000000        0.000000000000000       20.000075772584175
 PRIMCOORD
12 1
Mo          1.739540011444739        1.055326147162584       10.060381318826321       -0.218102664811520       -0.038810562442100        0.264899334349487
Mo         -0.045407733162694        3.944961319247185        9.891627752781641       -0.114994182906835       -0.128472425918314       -0.406867229678153
Mo          5.182379415835075        1.032316088030837        9.902603684385141        0.112371142290240        0.180495636296717       -0.015470334630512
Mo          3.481197105918540        4.045399387574080        9.972722469606298        0.074729918088120       -0.223266470706803       -0.087311102806000
S           1.718222651084841        2.943243750869180        7.838941233262996       -0.107486301212542        0.190537341288062        4.600780331371340
S           1.754915301024076        2.983188400694717       12.383459360453548        0.018398822439080       -0.167618003251947       -4.203814938610092
S           0.039039204586204        5.973809055327244        7.593264910290308        0.078154629028429       -0.065010115356329        4.204234542833410
S           0.042032703312575        5.983565746165721       12.218043500562098       -0.291880502973817        0.154838329281370       -4.427763009069355
S           5.168448691561236        3.002893239113117        7.898216102178904        0.142091565445955       -0.007546705369367        4.633096541437967
S           5.103916710820630        3.014443540940957       12.108416199825346        0.070891516464405        0.058662315926502       -4.587432443348353
S           3.414013069160135        5.985972433435456        7.827816698051515       -0.065918486508890        0.033202726832559        4.539949031849309
S           3.389522503385145        6.038021711105583       12.227105555930708        0.301744544657373        0.012987933419649       -4.514300466588614
