# total energy = -9292.817784236684 eV 

 CRYSTAL
 PRIMVEC
        4.013280256416000        0.000000000000000        0.000000000000000
       -2.006640128208000        3.475601034062666        0.000000000000000
        0.000000000000000        0.000000000000000       19.999977480556058
 PRIMCOORD
12 1
Mo          1.014954563567350        0.591512561056846       10.117720323240119      -12.433104279165820        1.714202808601122      -41.359066744760483
Mo         -0.025661716615575        2.322281811078939       10.009429179425195        4.272522301963543       -3.780259956410859      -12.517631904446310
Mo          3.012200004023105        0.565178218670296        9.990276200729475        9.562093507437721        3.833836628013088      -23.814334046948261
Mo          2.033325632616986        2.333649427405237        9.881586538185088       12.024230559684499       11.852777754354872        5.441598289303496
S           1.030787756834962        1.712530095240758        9.067139068180513      -16.439408784489942      -13.698656841954428     -110.939119465163373
S           1.014987071137427        1.745150037164908       11.104532160337378        6.748490609843499       17.881790074608997       90.283448254769539
S           0.042062789039470        3.461189344661876        8.914084197713551      -10.225444075728939        2.714721568284853      -90.865571981492863
S          -0.029490787308222        3.502182594513012       10.994482397114092       19.888178576265474      -10.178983192413797      117.053982758086093
S           3.020923269988451        1.737126687276281        8.750325507474702        6.759537102399014       -4.186102858132091      -78.734692529269438
S           3.016582104735086        1.729921645231937       10.955342480085370      -12.774116785721958        0.977223269087130      108.475009090359009
S           2.012209357219828        3.498797392616725        8.736429925914887        6.345116225369858        9.095452473440051      -71.795370186694441
S           2.016480691396732        3.469848799471145       10.977606152307837      -13.728094700746521      -16.226000956147644      108.771748466256994
