# total energy = -9677.43634556545 eV 

 CRYSTAL
 PRIMVEC
        5.191810907663900        0.000000000000000        0.000000000000000
       -2.595905453831950        4.496238041309629        0.000000000000000
        0.000000000000000        0.000000000000000       20.000080883695549
 PRIMCOORD
12 1
Mo          1.238961294658735        0.781658802195337       10.172303689401883        2.144930400492683       -2.159524759884934       -8.888052030316999
Mo         -0.028833241056802        2.994969326619719       10.181484368629905        2.942074552181242        1.030536659608061       -8.306691150242321
Mo          3.848900213374100        0.768880717189394       10.126348894333786       -0.208175373961949       -4.037875095140984       -7.612577318887438
Mo          2.566148589614674        2.978020659911650        9.890542034718599       -3.354039767484355        2.694078686004406        1.943781340387850
S           1.282723068799434        2.221164695965496        8.196372624116618       -1.348750155809772       -0.220597407323068       -0.929159045124559
S           1.361024922546639        2.203077465125376       11.670641626834417       -0.082108216125212        2.515638904713598        7.025695249418452
S          -0.012823253760839        4.522295221074103        8.273924780368757       -0.520631396283303       -0.375651452256009       -0.653480613067750
S          -0.029050777933833        4.458286422755696       11.707837836901282       -0.064047751013267        1.055517509079567        6.660936794790678
S           3.827322528060758        2.278631812540246        8.433624883888498        3.631226923550003       -1.627112563655312       -5.931408058455307
S           3.859654530488235        2.227299858915082       11.557702606616731       -2.132752879151401        1.488875340679790       10.442554037166545
S           2.570258427129181        4.489125779547220        8.252444701100480       -0.127966432590196        1.453520342429714       -1.330217378836165
S           2.572321652783887        4.470304945825847       11.609405774721791       -0.879759903804474       -1.817406164254829        7.578618430277443
