# total energy = -9685.890488104063 eV 

 CRYSTAL
 PRIMVEC
        7.994704042442199        0.000000000000000        0.000000000000000
       -3.997352021221099        6.923613568356005        0.000000000000000
        0.000000000000000        0.000000000000000       19.999959362479569
 PRIMCOORD
12 1
Mo          1.976975985428149        1.097901513562928        9.910291893410051        0.064094288001270        0.175919327736164        0.202785053776995
Mo         -0.026358539227932        4.616979159619369        9.989441861841440        0.059061608425773        0.075529017307525        0.281997692228801
Mo          5.967780344038489        1.173369920782773       10.067358247439083       -0.030291208312434       -0.041013484614515        0.466927455017753
Mo          3.890960098765087        4.666954054588675        9.947786255898700        0.353821748226277       -0.344525149263836        0.013706299963735
S           2.048849973710513        3.407966449804175        8.376337635671412       -0.095145000526742        0.118006488715893        1.776650304292131
S           1.967019381013691        3.446364213849621       11.483022064695344       -0.140761790297061        0.170182165579852       -1.730805714679987
S           0.056879121380359        6.904952330180136        8.710310001281199       -0.350014714075138       -0.027863057402502        0.122643218227721
S           0.030012118975328        6.945023385781665       11.477089994295850        0.084099022192090       -0.114048530741785       -0.757007927864459
S           5.937725053661331        3.428991721965394        8.382179365915222        0.067494059229777        0.129764405833858        2.015275009481550
S           5.899575924911605        3.519928282566557       11.568285583307990        0.121840776572713       -0.154617471421180       -1.937370291792008
S           3.958285100447301        6.882660696898595        8.674954222123905        0.108167643854571        0.034701937755452        0.087254538511190
S           4.033790283305742        6.979893886403586       11.423728542694167       -0.242366433291095       -0.022035649484926       -0.542055637163421
