# total energy = -9680.274975551592 eV 

 CRYSTAL
 PRIMVEC
        6.656943956970200        0.000000000000000        0.000000000000000
       -3.328471978485100        5.765079890335118        0.000000000000000
        0.000000000000000        0.000000000000000       19.999962657666302
 PRIMCOORD
12 1
Mo          1.637730701183477        0.964728978104891       10.013450989235684        0.021055287411698       -0.123049195598197       -0.322502869521319
Mo         -0.023974317966632        3.882973442185660       10.169773341399633       -0.033971744131542       -0.070186776773160        1.212891204320576
Mo          4.983918804621262        0.959997222340277       10.040936845139619        0.030714154971353       -0.026772652064826        0.079541996913858
Mo          3.298729418579753        3.785152979209961        9.932473925859911        0.143109208531672        0.176489341561589       -0.548004915425269
S           1.752216157661055        2.839894896484812        7.584447970162109        0.148794177270500       -0.017973818896713        4.004825349014843
S           1.638749879303290        2.851246983014633       12.310540006857938       -0.191310215243511        0.093278378798015       -4.485192737589863
S          -0.046143938426530        5.781746215225788        7.897720424305149        0.018585741722383        0.127480493875692        4.626604503056376
S           0.052471363657631        5.745071113883652       12.388713165439034       -0.089301908872878       -0.149670152508760       -4.470849832199084
S           4.919554144890109        2.922239296149346        7.678979237128669       -0.209621105915204       -0.118211148618933        4.223479001479897
S           4.996410559956517        2.833682636384167       12.196382737717437        0.155815091808565        0.155346122382504       -4.670583756491946
S           3.314545651727118        5.754256365155480        7.925351401587345       -0.028220440901529       -0.039672910827520        4.744395533231129
S           3.321872284246160        5.810338455215371       12.275587056917470        0.034351753348493       -0.007057938440123       -4.394603219678766
