# total energy = -9690.080755756018 eV 

 CRYSTAL
 PRIMVEC
        7.039168683922899        0.000000000000000        0.000000000000000
       -3.519584341961449        6.096096059494329        0.000000000000000
        0.000000000000000        0.000000000000000       19.999981709846463
 PRIMCOORD
12 1
Mo          1.747285679979999        1.060821726422627        9.835900793732305        0.682846995160041       -3.613757298208391        0.200274627529158
Mo         -0.028345324456421        4.086492238923601       10.119091477304602        0.392631539337084       -0.117580199621371       -0.812037530512010
Mo          5.233904891077769        1.002973134261281       10.107642973357072        0.032326494483867       -0.963817016996318       -0.421153827884552
Mo          3.578830913023423        4.023245308298554       10.059263470909338       -2.047567051167669        1.322299148894070       -0.398555363666267
S           1.777119084696201        3.026225198993266        8.785016965657642       -0.302760130859642        1.460828192208724       -5.304431931272898
S           1.780633741620083        2.988617032465672       10.993022571252208       -0.244424602290883        0.859088996487052        6.125412019683924
S           0.032736357881452        6.068292751026570        8.768674127724177       -0.285169406505051       -0.108965457521821       -3.675656891571037
S           0.045320279737701        6.074568169908287       11.263926385886718       -1.434369471980093        0.454436773171569        3.966449817421918
S           5.240407675107977        2.994175863975365        8.844311403066666        1.004856212653928        0.103892154498234       -5.994706332562343
S           5.244295407972107        3.014461340288694       11.012525292007886        1.085095750166965        0.348017737357917        6.495607588595085
S           3.430616992882216        6.134506691251890        8.839270654372108        0.451927118255025       -0.398221377216458       -4.706801103127442
S           3.498796269004088        6.036832594427514       11.166535967560304        0.664606295635998        0.653778604057225        4.525598670256032
