# total energy = -9685.448452035373 eV 

 CRYSTAL
 PRIMVEC
        6.211059206962799        0.000000000000000        0.000000000000000
       -3.105529603481400        5.378932549709958        0.000000000000000
        0.000000000000000        0.000000000000000       20.000070264801529
 PRIMCOORD
12 1
Mo          1.541669365573382        0.893408694024260       10.138243000768181        0.212483002122155       -0.103018493253852        0.849968003948953
Mo          0.012935151904421        3.628827490421954       10.153829653848053       -0.116235254957050        0.126750043141352        0.317793634867963
Mo          4.655866502178098        0.867595531960123       10.066694704233571        0.034979102800021        0.086772970674013        0.021757970219496
Mo          3.076436381050065        3.599834266043851       10.078708134951679       -0.024519593358375       -0.027598747879482        0.395538172759020
S           1.500645940617313        2.730402123876229        7.779810653996301        0.169619607956925       -0.014013289818295        3.693715814020395
S           1.553100820043797        2.671760408373690       12.259952626879166       -0.148210793702665        0.066305437707476       -4.376784695482350
S           0.045646316323811        5.387396981197208        7.871056703699870       -0.025455732437479        0.065287023290466        4.185341297035605
S           0.033562079530744        5.405907179845798       12.300645623485424       -0.096418982712120       -0.164203319618444       -4.377980516096717
S           4.654759691427417        2.735305755120127        7.828338280686221       -0.099056421512848       -0.087592638727895        4.072573690460834
S           4.595591278104128        2.728463031191816       11.998819822428988        0.425248568607928       -0.200051455675090       -4.139998586984683
S           3.117219438014824        5.364755185964145        7.696349545902739       -0.075044878366039       -0.039225024456798        3.660497403451549
S           3.180293986473373        5.324682053066741       12.140107133951215       -0.257388881550885        0.290587237506117       -4.302422188200064
