# total energy = -9626.311735196316 eV 

 CRYSTAL
 PRIMVEC
        5.701408598450900        0.000000000000000        0.000000000000000
       -2.850704299225450        4.937562381473441        0.000000000000000
        0.000000000000000        0.000000000000000       19.999982625323110
 PRIMCOORD
12 1
Mo          1.462580067197170        0.814309954623208        9.935638943669979       -5.750514929432335        4.739647217792267        3.326907932147486
Mo          0.056087607087261        3.264928738128703       10.148045491146128        1.655722526859736       -5.071932367880100       -6.970431676278734
Mo          4.295250240884861        0.812548789507147       10.140149610378133       -2.670979884887484        4.422316895920884       -9.578676101792540
Mo          2.877940498241110        3.257758076534432        9.853197145477241      -16.411659884118780        3.052403723428844        4.766228065475602
S           1.383663449940852        2.441121377062196        8.881744967063527       -2.770642829906953        1.802789693365517      -22.118280920778624
S           1.429603119863730        2.483113391671506       11.227460112920966        6.223179289495969       -2.951526702954410       18.904130825009531
S           0.017010722694338        4.943222739929983        8.978797765071517        4.662684295611311       -3.811209624536966      -26.454157546923149
S           0.033889742850052        4.912187692365175       10.880547074071883       -5.633447150899856        3.266545859161946       31.603165451352961
S           4.236119792028607        2.449883871937155        9.041782366140325       11.780932872412487       -4.544940573755852      -30.685524696424721
S           4.223616032831344        2.510989858872772       10.879513408692985       -1.233107026175209        1.227341324761062       32.293022819523401
S           2.840369355859038        4.888392293438680        8.863639573918286       -2.025742232236125        5.681555340746119      -23.908386585253876
S           2.796862476985119        4.946418379449415       10.857997432924151       12.173574696166810       -7.812990786049311       28.822002433942657
