# total energy = -9682.558184887588 eV 

 CRYSTAL
 PRIMVEC
        5.956207443844399        0.000000000000000        0.000000000000000
       -2.978103721922200        5.158224551555346        0.000000000000000
        0.000000000000000        0.000000000000000       19.999943953578928
 PRIMCOORD
12 1
Mo          1.515045941487525        0.900437999013598        9.963141768060451        1.660992519363003       -4.656037476750283        3.455393984918640
Mo          0.014450950500255        3.402674696555060       10.050839775222128       -5.640088313331401        3.497854229928135       -2.353967351508760
Mo          4.466890531652049        0.807580129343320        9.907723427140692       -2.593381128610778        5.153131441521458        5.264890660986027
Mo          2.978743418601669        3.469536103215936        9.835992820894472        3.345801949276584       -5.711239254220639        4.965557812171003
S           1.446880721017193        2.552192600614474        8.723448914218876       -0.900622872613818        1.307162543602936      -14.417044469095693
S           1.485395940832068        2.587829780992484       11.108602655174455        4.275417879636948        0.638956959044011       15.953643619527469
S          -0.006737661860477        5.164480356233616        8.747846731150350       -0.927775276785163       -2.589313641593082      -12.263403681423144
S           0.023127357883703        5.133141770767828       11.435327436402817       -0.038884610246215        0.881416980531973        6.143251626935679
S           4.511595442242567        2.578146178930282        8.580847778081329        0.883389017537392       -0.219936890625947       -8.169709397501149
S           4.477265649398481        2.537210952030972       11.366954939913439       -2.040389299266721       -0.238021781228832        5.860164814921356
S           2.993161014340238        5.167739592946887        8.786507878047601        1.396132008688590        2.415321099426489      -17.208702734297542
S           2.971306497987285        5.142170190011208       11.151172265396355        0.579408383462010       -0.479294209636217       12.769924857255683
