# total energy = -38803.37863578527 eV 

 CRYSTAL
 PRIMVEC
       12.740577282373799        0.000000000000000        0.000000000000000
       -6.370288641186900       11.033658440967770        0.000000000000000
        0.000000000000000        0.000000000000000       19.999979849788435
 PRIMCOORD
48 1
Mo          1.590438113601927        0.918231241548875        9.999919851719165       -0.056006365174745       -0.017031766277697       -1.390715206129248
S           1.585917756782141        2.747107984932700        8.350103003635008        0.081606850784851        0.170583000741710        0.964654939890797
S           1.594959744479442        2.767245741385219       11.472099926986099       -0.103103596806497       -0.204801570886968        1.272000635286507
Mo         -0.002134046694798        3.676646488819681        9.998997433923922       -0.052502464221702       -0.027805721776400       -0.760444465884593
S          -0.017742527923434        5.489806456067970        8.488529375807998        0.192802741295200        0.379312704792796       -0.680429385777779
S           0.013474434533839        5.541376490733835       11.610530121332275       -0.171356131807589       -0.316313707227391       -0.478204061408971
Mo         -1.594706206991522        6.435060462032760       10.000551784352371        0.026063284385823        0.034206743065435        0.391197120242790
S          -1.582631961901017        8.296554357317190        8.503911074761007       -0.196381975604512       -0.341339036803452       -0.900656811190704
S          -1.606781726139757        8.251456535910771       11.625910546227557        0.149810020583199        0.286458558205855       -0.670918870936785
Mo         -3.187277093230519        9.193474435245838       10.000721234030227        0.035921669639899       -0.065522536445220        0.517550441989180
S          -3.177513988859036       11.047290858659908        8.358040383281924       -0.090805233562667       -0.201472247916543        0.854870071425525
S          -3.197042745717459       11.017550529109664       11.480039854748474        0.114534983677150        0.255901240597384        1.143369315121864
Mo          4.775582434195377        0.918231241548875        9.998997433923922        0.023258466694544       -0.064943009533850       -0.176082078638958
S           4.759973952966741        2.731391208797163        8.488529375807998        0.219867727920020        0.351148056854784       -0.671467030375579
S           4.791189641366285        2.782961243463028       11.610530121332275       -0.197203700541842       -0.288253703234777       -0.478066764438842
Mo          3.183010273898652        3.676646488819681       10.000551784352371        0.091382446480159        0.069934294329963       -0.070511250137024
S           3.195085793046886        5.538139110046383        8.503911074761007       -0.174012853890638       -0.332425532383133       -0.862603181857334
S           3.170934754750418        5.493042562697693       11.625910546227557        0.131342292548624        0.265150531240529       -0.637476517182577
Mo          1.590438113601927        6.435060462032760       10.000721234030227       -0.055981939683804       -0.099774530946503       -0.018212931597500
S           1.600202492031139        8.288878159504559        8.358040383281924       -0.116966734133115       -0.161560481498667        0.800584546365156
S           1.580673735172716        8.259132733723401       11.480039854748474        0.154962513619521        0.218683991495907        1.073265327907471
Mo         -0.002132772637069        9.193474435245838        9.999086617964897        0.027549125566307        0.102456964072648        0.049797148267202
S          -0.018935045957064       11.002670808901581        8.413256771166004        0.223755494746478        0.369200551543369        0.208269476379678
S           0.014666952567469       11.062170578867994       11.535249872343913       -0.257490183060681       -0.392483186618423        0.370794379104854
Mo          7.960726754788827        0.918231241548875       10.000551784352371       -0.035238270114423        0.073258475091769        0.774815653422776
S           7.972800999879333        2.779725136833305        8.503911074761007       -0.190824019418576       -0.355498622456960       -0.907154248891347
S           7.948651235640592        2.734627315426887       11.625910546227557        0.146207646335101        0.295478249234158       -0.674909996156486
Mo          6.368155868549830        3.676646488819681       10.000721234030227       -0.053407235828229       -0.095043184796084       -0.002783477525510
S           6.377918972921313        5.530462912233753        8.358040383281924       -0.117583542056974       -0.162209428226395        0.800850141440332
S           6.358390216062891        5.500718760510323       11.480039854748474        0.153411109279143        0.218403741126167        1.073005389261776
Mo          4.775582434195377        6.435059187975031        9.999086617964897        0.024672316954361        0.102430224587828        0.018086947486332
S           4.758781434933111        8.244259383803957        8.413256771166004        0.197740290011243        0.372665628821338        0.218679620618581
S           4.792383433457643        8.303751509424002       11.535249872343913       -0.232792926394517       -0.399015334227244        0.380597228505843
Mo          3.183010273898652        9.193474435245838        9.999704535963092        0.020664222446217       -0.090717301795281        0.019898033361974
S           3.181376931891052       11.031941011150106        8.532404101795308        0.022220768995213        0.034241710084044       -1.269293005338129
S           3.184643615906253       11.032900376619470       11.654399751088672       -0.017604351207431       -0.036317876813999       -0.951995850712338
Mo         11.145871075382276        0.918231241548875       10.000721234030227        0.082778245908278       -0.072137216502378       -0.241508455783001
S          11.155630357580574        2.772048939020675        8.358040383281924       -0.136495299805807       -0.167871771247298        0.858265985997568
S          11.136110519126250        2.742304787297245       11.480039854748474        0.166885495634158        0.224627356217844        1.134846875667026
Mo          9.553298915085552        3.676646488819681        9.999086617964897        0.017094758333280        0.096795906603899        0.038174471235919
S           9.536497915823286        5.485845410590880        8.413256771166004        0.192170763855914        0.378115084405412        0.208947476586104
S           9.570098640290089        5.545338810268652       11.535249872343913       -0.226575996174045       -0.402471412640130        0.365142834722050
Mo          7.960726754788827        6.435060462032760        9.999704535963092        0.024289736633102       -0.087097444037877        0.035245983427351
S           7.959093412781226        8.273529586052483        8.532404101795308        0.064850192668275        0.033241293397202       -1.266487930536419
S           7.962358822738699        8.274481307175476       11.654399751088672       -0.051232852913650       -0.030033069439756       -0.951566476292645
Mo          6.368155868549830        9.193474435245838       10.001041022520015       -0.054702815289807        0.039116266744504       -0.050361248552715
S           6.385745509545876       11.062401183316805        8.419522587073477       -0.241720828998969       -0.373833167288301        0.188200978801982
S           6.350563679438328       11.002440204452769       11.541520784482298        0.244146151694160        0.414562287766181        0.350737965717412
