# total energy = -9680.222160136498 eV 

 CRYSTAL
 PRIMVEC
        7.994704042442199        0.000000000000000        0.000000000000000
       -3.997352021221099        6.923613568356005        0.000000000000000
        0.000000000000000        0.000000000000000       19.999959362479569
 PRIMCOORD
12 1
Mo          1.956454379621604        1.115864014605487        9.809150093098710        0.255891984621870        0.341088611243703       -0.065535649077199
Mo          0.092861685334583        4.558148530982250        9.972440324224783        0.198466884089120        0.105768803533768        0.263174123357785
Mo          5.934228969583571        1.216962643514998       10.146500221166431       -0.005520932283879       -0.367659431620230       -0.180678441813125
Mo          3.929310694056682        4.671015364242236        9.945674854561092       -0.166262002839094       -0.251165780680070       -0.198151923811201
S           2.086588174672457        3.433567890559288        8.293087983007057       -0.233418990293890       -0.011219784985978        2.590609992385954
S           1.946013296142175        3.417359427583641       11.594520204623263       -0.105560286974264        0.287138101074867       -2.790189650420243
S           0.029821845019118        6.958877408416813        8.106741824892984       -0.355695054826209        0.050752570628628        3.251033615531189
S           0.004092488999326        6.868154306413583       11.662946876522527        0.368066694542861        0.146142597396069       -2.948352160463419
S           5.904024977711225        3.478426174941431        8.100719414337812        0.007935713451400        0.099283707133811        3.501044456155414
S           6.055109694175701        3.477986466219097       11.895060316868367       -0.003980840802463       -0.427115704557518       -3.408648737466863
S           3.952694403910422        6.934737399560659        8.130380565805677        0.385951296120032       -0.021653069163667        3.407914430076059
S           3.975380975571660        6.870627068373911       11.831063510479021       -0.345874979026345        0.048639379996615       -3.422220054454348
