# total energy = -9697.664560701278 eV 

 CRYSTAL
 PRIMVEC
        5.956207443844399        0.000000000000000        0.000000000000000
       -2.978103721922200        5.158224551555346        0.000000000000000
        0.000000000000000        0.000000000000000       19.999943953578928
 PRIMCOORD
12 1
Mo          1.488104823977529        0.839171258004726        9.883675835206914        0.281713842313027        0.583303606490966        0.299956855830949
Mo         -0.005101491675653        3.460585710290071        9.970190343949497        0.293178139318842       -1.087697707728221       -0.850513335173007
Mo          4.512167833777921        0.811224137057464       10.019443414544137       -1.080288299328984        0.884456025825852       -1.567543419238835
Mo          2.975331702977834        3.408718460248330        9.907062883735168       -1.037386338599111        0.516650298370409        1.824195422294605
S           1.477192456319661        2.596405528470131        8.115569699294259       -0.182464845087395       -0.215832122595764        2.467916123403334
S           1.428375975730657        2.582470981155257       11.752443068162027        0.733162735166478       -0.301688494583425       -2.500943758032413
S           0.006231384227750        5.144189344334671        8.074881655003869        0.083762721748402        0.067537768003039        2.750538079758492
S          -0.003641625231166        5.110585613177990       11.612451942126373       -0.258226804445365        0.848999211845118       -0.646154251337711
S           4.396070629523994        2.595912354493780        8.341653634585471        1.374447057831485       -0.866829563121358        0.145838949977112
S           4.526902895373247        2.558854618640414       11.788642514522735       -0.676274738323991        0.045691094684864       -2.478961330406694
S           2.996418464191277        5.126094386120272        8.172747503892932       -0.261684168410405        0.180698239316309        1.886995416386452
S           2.972688338114256        5.166370260855548       11.670463615767185        0.730060954927447       -0.655288099397357       -1.331325010572715
