# total energy = -9680.759864535083 eV 

 CRYSTAL
 PRIMVEC
        8.376928769394899        0.000000000000000        0.000000000000000
       -4.188464384697450        7.254629737515218        0.000000000000000
        0.000000000000000        0.000000000000000       19.999984452360476
 PRIMCOORD
12 1
Mo          2.107538943698909        1.279846444324322        9.806166848313980       -0.461816613871246        0.163995317279802       -0.126911508491991
Mo          0.055610241635628        4.814322324609358       10.162653753638596       -0.148836600491607       -0.303156852254604       -0.163239155502366
Mo          6.196798711751922        1.209565687334853       10.097109312175341        0.294912349175628        0.255397047042283       -0.132318797965388
Mo          4.199956693276182        4.779357861618781        9.805380254702532        0.027504388351321       -0.170259041598708       -0.035198675108056
S           2.031547634367343        3.620195316996500        8.998033639923053       -0.072159585109871        0.066183824473635       -4.774731221648118
S           2.147408936176844        3.600062206392137       10.883240517153451        0.029399292227454        0.223573974782225        5.088988816759168
S          -0.108142799641380        7.324842641381655        9.098207467226109       -0.058536588925765        0.156970546085273       -6.133196295091492
S          -0.065118893481768        7.232430038583444       10.942398388122918        0.281285753445489       -0.659346330439538        6.165547215066300
S           6.263008281359466        3.596621801746546        9.157695389189090       -0.090728357543812        0.244756274746814       -1.898273308329825
S           6.244021134610755        3.573257709715826       11.172288119727176        0.210601982209294       -0.006303062214841        1.923336690249668
S           4.168828025969111        7.192046540371945        9.044990514139897        0.325064203634485       -0.234000574088709       -1.550899889711879
S           4.158592256705787        7.250075201343297       11.058277281482836       -0.336690737322232        0.262189390407230        1.636896129773979
