# total energy = -9697.876598566729 eV 

 CRYSTAL
 PRIMVEC
        5.956207443844399        0.000000000000000        0.000000000000000
       -2.978103721922200        5.158224551555346        0.000000000000000
        0.000000000000000        0.000000000000000       19.999943953578928
 PRIMCOORD
12 1
Mo          1.454455230023530        0.818641402187283        9.904826923460750        1.365335835489763        1.729234255725995        3.300496006017289
Mo         -0.025268614459765        3.413956349074446        9.854929391220686        0.991546634085155        0.066089979166336        3.829669382148182
Mo          4.441852422420360        0.909872035983904       10.060817018311312       -0.343246539090701       -1.344202129396624        0.682673959840009
Mo          2.954614822246655        3.400710339340081       10.092565390849236        0.141292209116119        0.674417372570778       -1.187123082709488
S           1.558501835377070        2.538156797773055        8.173840467958877       -0.498388515791028        0.339028899581329        1.854434437189555
S           1.437450853392098        2.595981446500129       11.688130322666373       -0.438894447620390       -0.511648214936196       -1.462593512427655
S           0.013606955905463        5.136102005867420        8.356291609999463        0.362935284561878        0.553641290292646       -0.492927233127130
S          -0.074741469109081        5.198254434923191       11.805969121976878        0.313400131823818       -0.478875890965055       -2.471117662489576
S           4.465021473756170        2.556375645102286        8.358818233197143       -0.882456220893890       -0.031287254121950       -0.312025362349506
S           4.412179788176616        2.571359080548021       11.835418994062223        0.481272931512840        0.296090172059829       -2.062856637165220
S           2.983885412487939        5.202083680688839        8.406594759966451       -1.429409297546126       -1.310740492360094       -0.678561478496897
S           2.968622630913088        5.167621660039499       11.699844991466925       -0.063388262757870        0.018252526603867       -1.000068816429562
