# total energy = -9687.928139216283 eV 

 CRYSTAL
 PRIMVEC
        6.911795720088600        0.000000000000000        0.000000000000000
       -3.455897860044300        5.985787888489730        0.000000000000000
        0.000000000000000        0.000000000000000       20.000075772584175
 PRIMCOORD
12 1
Mo          1.758512890696382        1.055658604536720        9.932088022567896       -0.084523511513595       -0.244551357733344       -0.112398653106352
Mo          0.031404435033795        3.983333535546401       10.000266666730422       -0.010645143172795       -0.240284867242090       -0.207735715125017
Mo          5.251073679958320        0.976710000283152        9.820400315526985       -0.552587908857027        0.237593435250862        0.267345997210447
Mo          3.521341506640387        3.936829591582501        9.924529282768408       -0.308155593253215       -0.023026295975393        0.134521463027372
S           1.754518563949743        2.955431320262413        7.963572660148919        0.143113065188136        0.038204038935479        4.275981979922461
S           1.801597569317554        2.947564314373808       11.819624095150745       -0.177558920954358        0.155532527444946       -4.101125803818293
S          -0.009357880225428        5.983276833104622        7.817397166003481        0.198007427749005        0.138412572289432        4.325354124647296
S          -0.033320384807403        5.968257501004869       11.815761783702358        0.133192973430632       -0.056318240127492       -4.123076349750574
S           5.247721459034077        2.932254686853812        7.955210078507182       -0.151093258744092        0.023051492797626        4.243792782408724
S           5.236655674086215        2.973835358726292       11.861190252252213        0.070821068206324        0.114722160070885       -4.240628781445403
S           3.391308511399216        5.996766584811518        8.105488414592065        0.451348105564516       -0.132686980102514        3.754476151063483
S           3.398255557277477        5.964495410594425       12.164816452901269        0.288081696356469       -0.010648485608398       -4.216507452144575
