# total energy = -9674.457517024155 eV 

 CRYSTAL
 PRIMVEC
        7.803618137828300        0.000000000000000        0.000000000000000
       -3.901809068914150        6.758128397812754        0.000000000000000
        0.000000000000000        0.000000000000000       20.000017783330357
 PRIMCOORD
12 1
Mo          1.971132293032140        1.059649405126636       10.117553230951657       -0.092477736916024        0.233534175766958       -0.058905542394184
Mo          0.037907635828129        4.441170963384615        9.970964605317995        0.229080765992401        0.011720378995045       -0.138111753085216
Mo          5.878022297715829        1.188843765931080       10.000391268953932        0.097330953410715       -0.212544451515153        0.091628244052151
Mo          3.825069848870374        4.557664155307930       10.107182222446484       -0.043942743754376       -0.122790542504658        0.061752783306571
S           2.027046777713307        3.358895747829159        8.075265987015174       -0.271406799356937        0.194715385791068        4.070214445146398
S           2.019731666070907        3.373543919435677       12.119993639952765        0.039210112051803       -0.004986913918787       -3.941261479832631
S           0.069581741487760        6.761042268825419        7.706051841336475        0.076573914098923       -0.088218445516837        3.794855858465696
S           0.094635257519258        6.722905986985852       11.940631378863850       -0.267811881311336        0.143657882191328       -3.915862311689962
S           5.887967228670679        3.399089063409858        7.719475625257166        0.241287340812381       -0.136589145113105        3.861632836703542
S           5.841690992751542        3.358273799463575       11.936368262275154       -0.014619556214485       -0.039022164326775       -3.938782421057371
S           3.961993693440337        6.734666039519559        8.022194360421617       -0.157728507635726        0.081530746097288        4.112493170191638
S           3.883421403495985        6.751588965813254       12.124323867657447        0.164504395933092       -0.061006391725511       -3.999654344027493
