# total energy = -9681.21776430349 eV 

 CRYSTAL
 PRIMVEC
        8.185842864781000        0.000000000000000        0.000000000000000
       -4.092921432390500        7.089144566971965        0.000000000000000
        0.000000000000000        0.000000000000000       20.000036021847581
 PRIMCOORD
12 1
Mo          2.061263175847633        1.122459145304500        9.954758485724419        0.819208340431321       -0.350329674353057       -0.575522673519000
Mo          0.024289032948378        4.757265611857536        9.856190296036729        0.094847009537266        0.802063188453574       -0.608537709736962
Mo          6.183809173565776        1.166319709958283        9.817305086676161       -1.470639783364366       -0.315599968671062       -0.431089603378345
Mo          4.158755255046215        4.705866704509576        9.829158187144364       -0.680188730414406        0.135586157321953       -0.007442318534399
S           1.995977804663859        3.486697555847694        9.069782102107226       -0.120023005825867        0.127071945400906       -1.742390082257057
S           2.096526149740537        3.508602871353848       11.081876194203264        0.202012951152840        0.027889796887322        2.057860210160487
S           0.033198504322406        7.017263862192037        8.975834002132419        0.177298210977371        0.116084588244511       -1.241105217461331
S          -0.005380554515021        7.148059715238367       11.099118853613641        0.045223925031820        0.097236079661692        1.809186600887656
S           6.211694247284652        3.495073310266938        8.956501497038667        0.675883673358510       -0.552877158091850       -8.345445919720904
S           6.098477491790439        3.605960374881835       10.742489511860871       -0.272048804103029        0.278601006325465        8.832720065802645
S           4.062347309290543        7.094856648123010        9.123157071922742        0.510955045214343       -0.039841318159795       -8.617734607856013
S           4.024048206279092        7.092522864322261       10.913333782538857        0.017470910893766       -0.325884900130090        8.869501255613223
