# total energy = -9689.084749540649 eV 

 CRYSTAL
 PRIMVEC
        5.956207443844399        0.000000000000000        0.000000000000000
       -2.978103721922200        5.158224551555346        0.000000000000000
        0.000000000000000        0.000000000000000       19.999943953578928
 PRIMCOORD
12 1
Mo          1.486584799837859        0.892004009273115        9.926623664601498       -0.084663636698465       -0.121334526134164       -0.152319418389312
Mo         -0.053384296077689        3.465592498267366        9.991467108180398        0.251954081261376       -0.075538016172609        0.458525857465464
Mo          4.513694409745778        0.867694939832553       10.061878414477805       -0.604622689204823       -0.115702265033682        0.505668597643495
Mo          2.956933573804544        3.396389110839572        9.915088873265749        0.011674099117474        0.254102238911998       -0.470018693729115
S           1.556616100100349        2.550933458360845        7.738826474814725       -0.310144599547077        0.080955590063244        3.899391303262177
S           1.444229613083938        2.603969316303069       12.101878868373767       -0.038398928642142       -0.064178620222623       -3.812875185908687
S          -0.056807328495666        5.172542678629603        7.866466809094820        0.093072176232390       -0.117277580644138        3.896923557345878
S          -0.064974480142665        5.163035975928484       12.018810621258192        0.140616265793141        0.113702717212152       -4.169870962405093
S           4.450597326189413        2.547481836147138        8.054750269464419        0.171292625531143        0.174153493296370        3.827421722760781
S           4.453083447176473        2.570086834638016       12.109870907521918       -0.097212168391614        0.084115220149240       -4.135967866758615
S           2.991736289519671        5.133674851334053        7.890910488823614        0.072610556805765       -0.025676847408099        4.091518101234398
S           2.896675814336659        5.193693766883439       12.066402505596741        0.393822474853263       -0.187321404017688       -3.938397012521370
