# total energy = -9693.406562115611 eV 

 CRYSTAL
 PRIMVEC
        7.293967529316399        0.000000000000000        0.000000000000000
       -3.646983764658200        6.316758229576235        0.000000000000000
        0.000000000000000        0.000000000000000       19.999949555872629
 PRIMCOORD
12 1
Mo          1.868203173887057        1.000967210776654       10.108082317672077       -0.425183776779328        0.272244465140985       -0.828933799592593
Mo          0.061736141168134        4.203785552133884        9.852154502590436       -0.237996070185736       -0.368742637865839        1.136839481506921
Mo          5.526752253459740        1.023396160929302        9.933671154301321       -0.035261152942778        0.013962124842535        0.328145157928608
Mo          3.696050284227911        4.185463835096995       10.033440959754323       -0.369691889576922        0.172104837382528       -0.122041579819288
S           1.783507811126893        3.128346203486157        8.317162376741891        0.307327697665543       -0.006214873337024        2.567673170840532
S           1.838745027226406        3.198965667708245       11.747965343575952        0.160220164822102       -0.291716980739730       -2.961539611577489
S           0.064570576950026        6.271695368783365        8.519067421317652       -0.188913431806156        0.356602140426615        0.272452210369196
S           0.028924228237504        6.266530510375856       11.403469068976081        0.261261993082778       -0.026700146923297       -0.306499287857008
S           5.514361261420937        3.191473304262132        8.401099166879007       -0.100378997569676       -0.170044097278430        1.544252299519559
S           5.436008003427514        3.128782382744410       11.558806507257673        0.288190968289624       -0.017875602712088       -1.949534700501311
S           3.635818159164322        6.282030191375654        8.314161638500330        0.172193283370776        0.004733660144297        2.662761349962034
S           3.661948068441345        6.268085584253106       11.651919837943421        0.168230954519341        0.061646596698586       -2.343575462110454
