# total energy = -9338.966912185944 eV 

 CRYSTAL
 PRIMVEC
        4.013280256416000        0.000000000000000        0.000000000000000
       -2.006640128208000        3.475601034062666        0.000000000000000
        0.000000000000000        0.000000000000000       19.999977480556058
 PRIMCOORD
12 1
Mo          1.006845329481236        0.544744602244754       10.048509298578097      -12.275161341430676       23.272155768109272      -21.792062805530012
Mo          0.032963077386073        2.292569892028588       10.118457161495197       -0.552744231999047      -22.276402550263278      -34.239992329255081
Mo          2.968598122005299        0.593978320446388       10.021333371321777       24.901277135561632       19.267945427245269      -26.628360148311831
Mo          1.973340737936439        2.328442998928589       10.192489339729253       -1.301031231155972      -16.965048177747370      -55.503273594950983
S           1.043324040371929        1.720311845657949        8.838609646555341        0.375375315653164        4.759280170299927      -65.558817555242825
S           1.059528462063260        1.704267553848849       11.264406396616042       -8.917824132669335       -9.267480691914153       85.764894410321659
S          -0.002870699367414        3.499537842824034        8.940280884587306       -2.353628222850331      -11.782437482654432      -88.964176838310394
S           0.013038344897044        3.484740477190602       11.014342917119018        1.561197676692455        1.531394978198834      112.419161005656420
S           2.977570612674568        1.746832404248397        8.656258231544566        0.706226303757134        5.750361948725917      -46.690841084813201
S           3.005505852555403        1.752677345613841       11.102427997498939        8.011416789579910       -9.843437624951036       98.817447394582842
S           2.016170866160937        3.467359763056116        8.823161728192344       -1.184498242319877       -5.694362268422377      -66.710988531747546
S           2.030968633122394        3.486121446926835       11.039724908100721       -8.970605818819053       21.248030503373421      109.087010077600922
