# total energy = -9673.966947797779 eV 

 CRYSTAL
 PRIMVEC
        8.185842864781000        0.000000000000000        0.000000000000000
       -4.092921432390500        7.089144566971965        0.000000000000000
        0.000000000000000        0.000000000000000       20.000036021847581
 PRIMCOORD
12 1
Mo          2.075683356638232        1.216579966563752        9.800023135220036       -0.303152224266847       -0.052200873686192        0.147378270127235
Mo         -0.058776807521987        4.733982618997240        9.861707554127593       -0.171237346788488       -0.303569000275424        0.429076942924836
Mo          6.141315644670411        1.123707486341379       10.057030769308419        0.499204584298876        0.058172520555534        0.643284127596969
Mo          4.052340934972634        4.750021140922206        9.888916477225838        0.108847700944444        0.214264006077374        0.191231282341208
S           2.056094634662811        3.521340861435734        8.271691073241103        0.024826583212934       -0.089248687013670        2.915038104814257
S           2.011715087571400        3.564076691279896       12.095551217924831        0.092712221629054        0.082975449608820       -3.475995729530135
S          -0.040918572728181        7.139796925450657        7.936588861054138       -0.313618675690129       -0.055878067069699        3.589140002886254
S          -0.030089521202362        7.048013980913587       12.036254609380929        0.321161781513462        0.105973206326377       -3.752564020788477
S           6.138482524454910        3.607991282496587        7.988931596084407        0.098996514782436        0.318380875092262        3.385782621289956
S           6.204566015318002        3.539434029919760       11.849429117678035       -0.017702053171194       -0.182059381937780       -3.551157593142258
S           4.106017962389862        7.077694209972710        8.254644874059483        0.100963666689666       -0.105906357614329        2.970106531136882
S           4.064552575358315        7.140310996382566       11.920388915135673       -0.441002753154214        0.009096052826296       -3.491320539656727
