# total energy = -38798.39345821707 eV 

 CRYSTAL
 PRIMVEC
       12.740577282373799        0.000000000000000        0.000000000000000
       -6.370288641186900       11.033658440967770        0.000000000000000
        0.000000000000000        0.000000000000000       19.999979849788435
 PRIMCOORD
48 1
Mo          1.590438113601927        0.918231241548875        9.936437377294281       -0.000264823743883       -0.000152980706418        4.654984095314664
S           1.590438113601927        2.757176863158960        8.534099872631593        0.000025196822234        0.000003085325171       -2.800725007439020
S           1.590438113601927        2.757176863158960       11.656100618155870        0.000018511951029        0.000002313993879       -1.854241604366339
Mo         -0.002132772637069        3.676646488819681        9.936437377294281       -0.000051422086191        0.000031881693438        4.655016748339396
S          -0.002134046694798        5.515590836372038        8.534099872631593       -0.000004885098188        0.000013369742410       -2.800752518255133
S          -0.002134046694798        5.515590836372038       11.656100618155870       -0.000003085325171        0.000012855521548       -1.854225920630051
Mo         -1.594706206991522        6.435060462032760        9.936437377294281        0.000201574577868        0.000116213914791        4.655024718762755
S          -1.594706206991522        8.274006083642846        8.534099872631593        0.000008998865083       -0.000011055748531       -2.800752518255133
S          -1.594706206991522        8.274006083642846       11.656100618155870        0.000009513085945       -0.000009255975514       -1.854225920630051
Mo         -3.187277093230519        9.193474435245838        9.936437377294281        0.000002056883448       -0.000060420951274        4.655016748339396
S          -3.187278367288247       11.032421330913650        8.534099872631593        0.000015169515426        0.000020311724045       -2.800725007439020
S          -3.187278367288247       11.032421330913650       11.656100618155870        0.000011312858962        0.000014912404995       -1.854241604366339
Mo          4.775582434195377        0.918231241548875        9.936437377294281       -0.000186919283304       -0.000440173057794        4.654930873455457
S           4.775582434195377        2.757176863158960        8.534099872631593        0.000006427760774        0.000003599546033       -2.800748147377806
S           4.775582434195377        2.757176863158960       11.656100618155870        0.000008998865083        0.000005142208619       -1.854226434850913
Mo          3.183011547956380        3.676646488819681        9.936437377294281       -0.000474882965972        0.000058106957396        4.654930873455457
S           3.183010273898652        5.515590836372038        8.534099872631593        0.000009255975514       -0.000016197957150       -2.800731949420656
S           3.183010273898652        5.515590836372038       11.656100618155870        0.000008484644221       -0.000012855521548       -1.854233633942980
Mo          1.590438113601927        6.435060462032760        9.936437377294281       -0.000237570038202        0.000140382295301        4.655016234118534
S           1.590438113601927        8.274006083642846        8.534099872631593       -0.000013369742410       -0.000007713312929       -2.800751746923840
S           1.590438113601927        8.274006083642846       11.656100618155870       -0.000014141073702       -0.000008227533791       -1.854226949071775
Mo         -0.002132772637069        9.193474435245838        9.936437377294281        0.000002828214740       -0.000275879492414        4.655016234118534
S          -0.002134046694798       11.032421330913650        8.534099872631593       -0.000009513085945        0.000015940846719       -2.800731949420656
S          -0.002134046694798       11.032421330913650       11.656100618155870       -0.000006941981636        0.000013626852841       -1.854233633942980
Mo          7.960726754788827        0.918231241548875        9.936437377294281        0.000261738418711       -0.000395692953238        4.654940386541402
S           7.960726754788827        2.757176863158960        8.534099872631593       -0.000022882828355        0.000000771331293       -2.800745833383928
S           7.960726754788827        2.757176863158960       11.656100618155870       -0.000019540392753        0.000004370877326       -1.854227977513499
Mo          6.368154594492102        3.676646488819681        9.936437377294281        0.000075847577131        0.000043708773262        4.654885622019609
S           6.368154594492102        5.515590836372038        8.534099872631593       -0.000010798638100       -0.000020054613614       -2.800745833383928
S           6.368154594492102        5.515590836372038       11.656100618155870       -0.000005913539912       -0.000019026171891       -1.854227977513499
Mo          4.775582434195377        6.435060462032760        9.936437377294281       -0.000211601884675        0.000424489321505        4.654940386541402
S           4.775582434195377        8.274006083642846        8.534099872631593       -0.000001028441724       -0.000034709908179       -2.800730920978932
S           4.775582434195377        8.274006083642846       11.656100618155870        0.000004370877326       -0.000018254840598       -1.854247775016682
Mo          3.183011547956380        9.193474435245838        9.936437377294281       -0.000001285552155       -0.000000771331293        4.655019062333274
S           3.183010273898652       11.032421330913650        8.534099872631593       -0.000030596141284        0.000016455067581       -2.800730920978932
S           3.183010273898652       11.032421330913650       11.656100618155870       -0.000013369742410        0.000012855521548       -1.854247775016682
Mo         11.145871075382276        0.918231241548875        9.936437377294281        0.000223686074930       -0.000134211644958        4.655005949701295
S          11.145871075382276        2.757176863158960        8.534099872631593       -0.000013883963272        0.000013883963272       -2.800739919844016
S          11.145871075382276        2.757176863158960       11.656100618155870       -0.000008741754652        0.000008227533791       -1.854238776151599
Mo          9.553298915085552        3.676646488819681        9.936437377294281        0.000459456340115        0.000046794098434        4.654960441155017
S           9.553298915085552        5.515590836372038        8.534099872631593       -0.000009513085945       -0.000005399319050       -2.800749175819530
S           9.553298915085552        5.515590836372038       11.656100618155870       -0.000005913539912       -0.000003342435602       -1.854226949071775
Mo          7.960726754788827        6.435060462032760        9.936437377294281        0.000270223062933        0.000374352787469        4.654960441155017
S           7.960726754788827        8.274006083642846        8.534099872631593        0.000005142208619       -0.000019026171891       -2.800739919844016
S           7.960726754788827        8.274006083642846       11.656100618155870        0.000002828214740       -0.000011569969393       -1.854238776151599
Mo          6.368154594492102        9.193474435245838        9.936437377294281       -0.000004370877326        0.000260709976988        4.655005949701295
S           6.368154594492102       11.032421330913650        8.534099872631593        0.000002571104310        0.000001542662586       -2.800668957365072
S           6.368154594492102       11.032421330913650       11.656100618155870       -0.000006684871205       -0.000003856656464       -1.854373502017419
