# total energy = -9676.348275985945 eV 

 CRYSTAL
 PRIMVEC
        5.701408598450900        0.000000000000000        0.000000000000000
       -2.850704299225450        4.937562381473441        0.000000000000000
        0.000000000000000        0.000000000000000       19.999982625323110
 PRIMCOORD
12 1
Mo          1.411672189821602        0.782595299153465       10.192028437638017        1.187409760840002        2.302902391706523      -12.093210202984329
Mo         -0.015035184614975        3.301423454567388        9.899395089209627        0.689381456762741       -2.650618795639362        7.087715170462785
Mo          4.344750440477471        0.792226688698828        9.889841238821203       -1.005140833900995        1.575804634495823        6.478784338876893
Mo          2.793354970415352        3.318057884294228       10.036903942350506        2.705346036420110        0.370342893188098        0.859653610993427
S           1.485899398505694        2.438125856984570        8.716083698545217       -1.118638376989245       -2.847820439297756      -12.185039764503918
S           1.370256017480735        2.467786865077151       11.283771215225286       -1.367341553961636        3.085156764117664       14.628216722240841
S          -0.031887978291136        4.957552660301329        8.783840948751788       -2.036922165105305        2.596251509461950      -15.687111633941424
S           0.008231123593584        4.918271665480582       11.305233597753295        4.956609340732075       -1.575316124677010       12.892097820505187
S           4.229888722571359        2.495302433114134        8.779461696807319       -1.904992889442812        0.045548655506115      -16.069753404594213
S           4.229258146780371        2.503502769101286       11.386551648311281        1.579494169180015       -1.607084689525706        7.834179513774676
S           2.927394516424073        4.891020072661706        8.583266534540005        1.534994010011331        0.788965983100769       -9.218345088785798
S           2.859380132689713        4.978338855769562       11.318080581748184       -5.220198954546282       -2.084133039547539       15.472812917955869
