# total energy = -9561.500933410673 eV 

 CRYSTAL
 PRIMVEC
        3.822194351802100        0.000000000000000        0.000000000000000
       -1.911097175901050        3.310115863519414        0.000000000000000
        0.000000000000000        0.000000000000000       20.000094431321056
 PRIMCOORD
12 1
Mo          0.913718110744968        0.561202094530917        9.804637911644081       10.650858994785695       -7.029170354003228       -9.635349925646043
Mo          0.043060077128532        2.182595667317692        9.878126860226745      -11.438881125494431        8.468555022049513       -6.915142649206351
Mo          2.876397710520763        0.568525418908970       10.138463397477819       -8.024274110900635        2.663140844958122        4.939903076259966
Mo          1.873210056608247        2.236363239703362       10.108489367151552       10.157072755708745       -3.989516736845401        4.459938065509390
S           0.921553226946727        1.659780635100794        7.760742032964583        2.123581492968836       -0.246500511910407      -10.090590168914343
S           0.981909880175469        1.630077598354069       12.036288385711671       -3.001317423460838        0.468617956101276        8.562952602553473
S           0.023655943062738        3.312767701960694        7.895630711614596        0.083675561312308        1.507848804932052       -7.281767982673284
S           0.016591381242303        3.307799995961657       11.931500634240406       -1.061497126372268       -2.844562335916705        7.415238635369345
S           2.867454922395852        1.653811131962149        7.894675163026646       -2.196626309292482       -0.525746351196705       -5.887410550179138
S           2.868446017391274        1.621823951870788       11.984429999404727        3.202430230994907        1.346957838995590        9.713424336220013
S           1.913192120625273        3.294319116482851        7.862600836904064       -0.170197592205710       -0.762625533670377       -7.449137874359359
S           1.963980292513713        3.276378500634362       12.250740626427667       -0.324825605154559        0.943001613616700       12.167942692176759
