# total energy = -9682.340552903319 eV 

 CRYSTAL
 PRIMVEC
        7.994704042442199        0.000000000000000        0.000000000000000
       -3.997352021221099        6.923613568356005        0.000000000000000
        0.000000000000000        0.000000000000000       19.999959362479569
 PRIMCOORD
12 1
Mo          1.993617761362896        1.089781292667019       10.178725274220707        0.182049097520542        0.237596520576034        0.132993455736212
Mo          0.071905967098534        4.575100501433844        9.822545219721823       -0.296421587405329        0.090711645365800        0.289937262336665
Mo          5.979649281659897        1.219009287749864        9.917341623434675        0.064378137917043       -0.104350839507056        0.338591554738276
Mo          3.923693614996463        4.656940687775516       10.113843454093864        0.217386612261313       -0.381783021813404        0.248416241731447
S           2.077563752749348        3.395766531435409        8.243480844423702       -0.433932473413405        0.409675904025897        3.178809752813579
S           2.072332018423974        3.425156662436235       11.817248661893682        0.131981211969545       -0.064889787674642       -3.172254208155541
S           0.051868840356961        6.914740246339299        8.259459059922929        0.156892127403832       -0.254895938812353        2.756057212269354
S          -0.029820246078309        6.913511460327975       11.698903057953411       -0.326926197375455        0.245360484259556       -2.895770249118552
S           5.979198380351904        3.495631577511171        8.452679864043095        0.286830854109877       -0.119423681411313        1.829285437496204
S           5.974390365340779        3.399501657164038       11.625610809173917       -0.169230342764460        0.013545091723527       -2.423322633148214
S           3.903343895326830        6.976776751297437        8.394913330514026       -0.155782953004696        0.039679852809156        2.794150693719522
S           3.918376337337834        6.926959351997767       11.858315058148495        0.342775512781193       -0.111226229541201       -3.076894263308521
