# total energy = -9680.67374658889 eV 

 CRYSTAL
 PRIMVEC
        6.529570993135899        0.000000000000000        0.000000000000000
       -3.264785496567950        5.654771719330517        0.000000000000000
        0.000000000000000        0.000000000000000       20.000062892833274
 PRIMCOORD
12 1
Mo          1.642773460248862        0.890250850603539        9.916117970712550       -0.303115714585652       -0.091813877783300       -0.692309430350447
Mo          0.073025416073033        3.724652734300922        9.873979384308347        0.104795126331745       -0.136653936941706       -0.785113954624214
Mo          4.951789617767215        0.945976168330259        9.828318094353348        0.311575933316198       -0.170609226005667       -1.245580995843381
Mo          3.277379733099510        3.811822507059286        9.932778171101535       -0.199364199493150        0.344748064007473       -0.558664971003060
S           1.660846006843664        2.792596305413831        7.752737897438366       -0.163600138547426        0.162927794770481        4.513100017986489
S           1.571762416827212        2.857091489941431       12.329732752027978        0.029460484510021        0.018465156930266       -3.851789106744031
S          -0.018231868127034        5.659567036267876        7.702195100208898        0.255846218965160       -0.156355537934430        4.489900943801495
S          -0.002689530292073        5.602670966462087       12.327382106470449       -0.099133297531703       -0.061477675145450       -3.618458305327958
S           4.873746879343057        2.783821867913255        7.765375882095581        0.266409343910481        0.022398432303003        4.538320237269214
S           4.888420131278831        2.806463808289053       12.419430121717784       -0.040555570936986        0.166234492022982       -3.310878382329649
S           3.322819017640743        5.653248370417819        7.926212927755604       -0.251961280353443       -0.000365096811955        4.518551787564441
S           3.248697286597962        5.627825485756044       12.304656587585939        0.089643351525185       -0.097499103632559       -3.997077840398901
