# total energy = -9698.101882531646 eV 

 CRYSTAL
 PRIMVEC
        6.083633325403599        0.000000000000000        0.000000000000000
       -3.041816662701800        5.268578550632652        0.000000000000000
        0.000000000000000        0.000000000000000       20.000011477230910
 PRIMCOORD
12 1
Mo          1.600310696787403        0.830457925987536       10.174389437708154       -0.254608232240116       -0.108577992102373       -5.019285150485771
Mo         -0.008259140602568        3.559802755286629        9.892259117152564       -0.304616725281562       -0.580781096052875        1.780771270279464
Mo          4.610089729670961        0.892309617643582       10.175618331639885       -2.505464273629449        0.287110590258755       -4.341604789435754
Mo          3.016249585288458        3.486060602296082        9.905570106868549        1.686372147112920        1.080709446214887        0.648010845759631
S           1.515832756067516        2.624973407605136        8.408584446843133       -0.203945907372753       -1.060099731180032       -0.434574992380360
S           1.566909724740939        2.587190394474384       11.552030637699129       -0.731060086062134        1.755504256898305        1.084894175589097
S           0.027325855807715        5.292607077177998        8.210197772465055       -0.011645559859638        0.153302094456419        2.509171548933378
S          -0.000221444253045        5.232561007892932       11.872307164294996        0.653050210206332       -0.185248065502473       -1.822684641402318
S           4.614472379118582        2.584172912344984        8.209338763439508       -0.451494401399729        0.279835393504476        2.219249713222569
S           4.491959562848272        2.682900547402963       11.650719337503826        0.776051326153941        0.455625394693870       -0.594422347077579
S           2.973876470813690        5.303898908993280        8.313650565526876        0.837523601980341       -0.079230379071542        1.776058178969643
S           3.048293298740024        5.319615975689461       11.575582815755098        0.509838157502279       -1.998149912117417        2.194416445138431
