# total energy = -9694.1995432881 eV 

 CRYSTAL
 PRIMVEC
        7.293967529316399        0.000000000000000        0.000000000000000
       -3.646983764658200        6.316758229576235        0.000000000000000
        0.000000000000000        0.000000000000000       19.999949555872629
 PRIMCOORD
12 1
Mo          1.851492694277392        0.998000024785728       10.024412486746535       -0.208536099896578        0.443973921294320        1.319782809106321
Mo          0.063307991170702        4.208395339612412        9.806297328733622       -0.406930993065030       -0.301796223853995        2.723665925956887
Mo          5.427392368981886        1.046620882939398        9.839937836375583        0.234236858574756       -0.193570215931598        2.516580700222183
Mo          3.614737863607845        4.167673848292991       10.082029724450864       -0.167471964527165        0.220627489243490        0.440751556263172
S           1.831507952643818        3.112891015688288        8.481531205618284        0.191637259711684       -0.019598756820343        0.784527999952069
S           1.798498373193144        3.160183642354870       11.632418686357040        0.056476620152960       -0.126121408137669       -2.218000156528132
S          -0.009237080479126        6.280076137474549        8.509653826824316       -0.089559019303832        0.210149724961246        0.023004441588762
S          -0.010102874424856        6.331233837534916       11.660392510625476        0.037864138945757       -0.038300455347087       -2.621231587602163
S           5.439867971044029        3.143554855181534        8.578540244361438       -0.074912980714959        0.186871203653087       -0.717853608776174
S           5.395430203268421        3.173778139036010       11.472835429576634        0.355909742036055       -0.220264963535845       -1.017335324530719
S           3.647863417142235        6.333755362109801        8.594662830188240        0.063304444757379       -0.318802021978165       -0.275779476456174
S           3.609804953367768        6.267526136943608       11.501036096235229        0.007981479108110        0.156831449342127       -0.958113022085600
