# total energy = -9677.163542067352 eV 

 CRYSTAL
 PRIMVEC
        8.727297025957800        0.000000000000000        0.000000000000000
       -4.363648512978900        7.558057406905104        0.000000000000000
        0.000000000000000        0.000000000000000       19.999988775209427
 PRIMCOORD
12 1
Mo          2.120259285079236        1.236778425277179        9.990542724925600       -0.072563505596900       -0.302597894177710        0.176929257508952
Mo          0.001837096023964        4.984822606098472       10.038309839737774       -0.247345119676092       -0.115608162615953        0.175502551727587
Mo          6.591974426211761        1.249847552573550        9.905534488244259        0.061484617127085        0.089088250104755       -0.180968719489672
Mo          4.271826875509393        5.074757401950968        9.823502259848768        0.277001522334499        0.138011994238006       -0.210289850146116
S           2.189053949345753        3.829844263115894        9.208905930497661        1.227066216599941       -0.127329827163153      -11.561075943130566
S           2.056025506238484        3.842815644685575       10.934742008326355       -1.080231220813312        0.062887154527940       11.487037652101714
S          -0.002928880881911        7.519242753382156        8.902814314635943        0.123696085442478        0.001082692024748       -1.432196888838531
S          -0.035272243660111        7.626885234900319       10.894038767726988       -0.231947547297540        0.135545019653001        1.377703875660382
S           6.487184898091383        3.751585717954427        8.840123521909382       -0.573755296416621        0.042137571418647       -0.288218993326598
S           6.602307545890495        3.728500271861364       10.910707905046568        0.509339363266227        0.093997002452532        0.328586616538557
S           4.276372051800511        7.580334705293563        9.086761299511464       -0.678684120172462        0.061866169006621       -5.059447856684258
S           4.459159178901279        7.531622424213477       10.944839490985386        0.685938490981834       -0.079079712359002        5.186438298078553
