# total energy = -9644.999642995484 eV 

 CRYSTAL
 PRIMVEC
        4.745873239931600        0.000000000000000        0.000000000000000
       -2.372936619965800        4.110044872611764        0.000000000000000
        0.000000000000000        0.000000000000000       20.000016294860590
 PRIMCOORD
12 1
Mo          1.119757942785802        0.717570813417094       10.162345012888073        1.428346403024561       -0.126602718864415       -3.276339966808283
Mo         -0.018549245558273        2.772069779904612        9.972725071348577       -0.170270611568101       -3.400868061605329        1.562161326587671
Mo          3.587761997144616        0.687501909743535       10.172414332141235        0.874517165006887       -0.854124451175758       -8.393293399590180
Mo          2.412748801400938        2.699192150432222        9.957318068462463       -1.816084102418863        2.570639968103313        3.265663970383774
S           1.161705292591585        2.094864991329756        8.540103028617468        0.949365611003677       -3.044700437807027      -16.306519715588696
S           1.183458477174135        2.052638584177465       11.800328584108206        0.190954888627932        1.524000996425455        8.294503087373371
S          -0.008975395471359        4.102497510398301        8.456829089225685       -0.236477061759659        3.725183045444013      -10.562576014550688
S           0.010038945664427        4.071303834766878       11.491437254652045       -1.522232076660490       -1.155729384869123       20.004608463818762
S           3.580209414470588        2.070920162485005        8.246521411646004       -0.456968282474743       -1.246179548926643       -7.338181096549797
S           3.541273321235542        2.071521939211828       11.567391159158557        0.273750360935084        2.632880747007834       15.692207819793365
S           2.374236514646218        4.118957147969032        8.490659572029212       -0.217654264219936        1.340083220292738      -11.908184795115060
S           2.344367412236060        4.114157171774165       11.802510736623924        0.702752227614081       -1.964583374025058        8.965950577356196
