# total energy = -38804.36617000458 eV 

 CRYSTAL
 PRIMVEC
       12.740577282373799        0.000000000000000        0.000000000000000
       -6.370288641186900       11.033658440967770        0.000000000000000
        0.000000000000000        0.000000000000000       19.999979849788435
 PRIMCOORD
48 1
Mo          1.590438113601927        0.918231241548875        9.999991198951946       -0.000330129793345       -0.000190518829337        0.000000000000000
S           1.590438113601927        2.757176863158960        8.438994011334129        0.000022368607493        0.000002571104310       -0.056254219630185
S           1.590438113601927        2.757176863158960       11.560989660627493        0.000022368607493        0.000002571104310        0.056254219630185
Mo         -0.002132772637069        3.676646488819681        9.999991198951946       -0.000062220724291        0.000034709908179        0.000000000000000
S          -0.002134046694798        5.515590836372038        8.438994011334129       -0.000005142208619        0.000011827079824       -0.056275559795954
S          -0.002134046694798        5.515590836372038       11.560989660627493       -0.000005142208619        0.000011827079824        0.056275559795954
Mo         -1.594706206991522        6.435060462032760        9.999991198951946        0.000247854455440        0.000142953399611        0.000000000000000
S          -1.594706206991522        8.274006083642846        8.438994011334129        0.000007713312929       -0.000010541527669       -0.056275559795954
S          -1.594706206991522        8.274006083642846       11.560989660627493        0.000007713312929       -0.000010541527669        0.056275559795954
Mo         -3.187277093230519        9.193474435245838        9.999991198951946       -0.000001028441724       -0.000071219589374        0.000000000000000
S          -3.187278367288247       11.032421330913650        8.438994011334129        0.000013369742410        0.000017997730167       -0.056254219630185
S          -3.187278367288247       11.032421330913650       11.560989660627493        0.000013369742410        0.000017997730167        0.056254219630185
Mo          4.775582434195377        0.918231241548875        9.999991198951946       -0.000239884032080       -0.000539417684142        0.000000000000000
S           4.775582434195377        2.757176863158960        8.438994011334129        0.000007199092067        0.000004113766895       -0.056269389145611
S           4.775582434195377        2.757176863158960       11.560989660627493        0.000007199092067        0.000004113766895        0.056269389145611
Mo          3.183011547956380        3.676646488819681        9.999991198951946       -0.000587240224299        0.000061963613860        0.000000000000000
S           3.183010273898652        5.515590836372038        8.438994011334129        0.000006684871205       -0.000017483509305       -0.056261161611821
S           3.183010273898652        5.515590836372038       11.560989660627493        0.000006684871205       -0.000017483509305        0.056261161611821
Mo          1.590438113601927        6.435060462032760        9.999991198951946       -0.000295162774735        0.000176120645204        0.000000000000000
S           1.590438113601927        8.274006083642846        8.438994011334129       -0.000013369742410       -0.000007713312929       -0.056273760022937
S           1.590438113601927        8.274006083642846       11.560989660627493       -0.000013369742410       -0.000007713312929        0.056273760022937
Mo         -0.002132772637069        9.193474435245838        9.999991198951946        0.000004885098188       -0.000343499535755        0.000000000000000
S          -0.002134046694798       11.032421330913650        8.438994011334129       -0.000011827079824        0.000014655294564       -0.056261161611821
S          -0.002134046694798       11.032421330913650       11.560989660627493       -0.000011827079824        0.000014655294564        0.056261161611821
Mo          7.960726754788827        0.918231241548875        9.999991198951946        0.000330386903776       -0.000489024039675        0.000000000000000
S           7.960726754788827        2.757176863158960        8.438994011334129       -0.000023911270079        0.000004113766895       -0.056268874924749
S           7.960726754788827        2.757176863158960       11.560989660627493       -0.000023911270079        0.000004113766895        0.056268874924749
Mo          6.368154594492102        3.676646488819681        9.999991198951946        0.000092559755143        0.000053478969638        0.000000000000000
S           6.368154594492102        5.515590836372038        8.438994011334129       -0.000008484644221       -0.000022882828355       -0.056268874924749
S           6.368154594492102        5.515590836372038       11.560989660627493       -0.000008484644221       -0.000022882828355        0.056268874924749
Mo          4.775582434195377        6.435060462032760        9.999991198951946       -0.000258138872678        0.000530675929489        0.000000000000000
S           4.775582434195377        8.274006083642846        8.438994011334129        0.000000000000000       -0.000025196822234       -0.056253962519754
S           4.775582434195377        8.274006083642846       11.560989660627493        0.000000000000000       -0.000025196822234        0.056253962519754
Mo          3.183011547956380        9.193474435245838        9.999991198951946        0.000007199092067        0.000004113766895        0.000000000000000
S           3.183010273898652       11.032421330913650        8.438994011334129       -0.000021854386631        0.000012598411117       -0.056253962519754
S           3.183010273898652       11.032421330913650       11.560989660627493       -0.000021854386631        0.000012598411117        0.056253962519754
Mo         11.145871075382276        0.918231241548875        9.999991198951946        0.000278193486292       -0.000164550675811        0.000000000000000
S          11.145871075382276        2.757176863158960        8.438994011334129       -0.000012341300686        0.000010541527669       -0.056262447163975
S          11.145871075382276        2.757176863158960       11.560989660627493       -0.000012341300686        0.000010541527669        0.056262447163975
Mo          9.553298915085552        3.676646488819681        9.999991198951946        0.000574641813183        0.000055278742655        0.000000000000000
S           9.553298915085552        5.515590836372038        8.438994011334129       -0.000008998865083       -0.000005142208619       -0.056272731581214
S           9.553298915085552        5.515590836372038       11.560989660627493       -0.000008998865083       -0.000005142208619        0.056272731581214
Mo          7.960726754788827        6.435060462032760        9.999991198951946        0.000335272001964        0.000469997867784        0.000000000000000
S           7.960726754788827        8.274006083642846        8.438994011334129        0.000002828214740       -0.000015940846719       -0.056262447163975
S           7.960726754788827        8.274006083642846       11.560989660627493        0.000002828214740       -0.000015940846719        0.056262447163975
Mo          6.368154594492102        9.193474435245838        9.999991198951946       -0.000003342435602        0.000323187811709        0.000000000000000
S           6.368154594492102       11.032421330913650        8.438994011334129       -0.000000771331293       -0.000000514220862       -0.056175543838313
S           6.368154594492102       11.032421330913650       11.560989660627493       -0.000000771331293       -0.000000514220862        0.056175543838313
