# total energy = -9617.651498713565 eV 

 CRYSTAL
 PRIMVEC
        5.446609753057400        0.000000000000000        0.000000000000000
       -2.723304876528700        4.716900211391535        0.000000000000000
        0.000000000000000        0.000000000000000       20.000032712373070
 PRIMCOORD
12 1
Mo          1.415792283870716        0.750663738707828       10.020588745884808       -2.805942549414373        6.159255465710420       -3.092094117765670
Mo          0.032707980889060        3.122132331035353       10.021447131581890       -4.275580116318880        3.513990223464386       -3.566206266666005
Mo          4.141245303286022        0.750426811183570        9.930255633808400       -9.368691441727966       -0.583437818135924        2.670047088243982
Mo          2.751762323166474        3.120659567758126       10.160535026201815       -7.507954199434002        5.737672520516606      -13.485796658830061
S           1.338707505357645        2.354492599049196        8.874553971219617        4.950640264967043        0.535679298475758      -25.317171512470583
S           1.364130645701991        2.371127634556984       11.042295393699883       -2.878134273328114       -4.844950394335578       33.789860870249839
S          -0.003374174742019        4.713005885418099        8.922550585685510        0.954161748982696       -2.649062506200796      -30.908711205787494
S          -0.054149104842946        4.713974837293168       11.127118170689123        7.407303950359669       -0.871005036520054       29.310365699809925
S           4.034085435038519        2.353559050137522        8.927995561455640        0.016324969703004        3.375107396196739      -28.769077537282897
S           4.054537454661249        2.325828725901781       10.980746524846433        9.205956994001564       -6.666860619119863       35.383286311020676
S           2.757993789384948        4.739401790264341        8.924651887728238        3.820545818505774       -7.099332705285447      -30.071849406056430
S           2.722439954899914        4.738381640257593       11.020483900282789        0.481368833703586        3.392943918123322       34.057346478424293
