# total energy = -9681.427892881333 eV 

 CRYSTAL
 PRIMVEC
        8.185842864781000        0.000000000000000        0.000000000000000
       -4.092921432390500        7.089144566971965        0.000000000000000
        0.000000000000000        0.000000000000000       20.000036021847581
 PRIMCOORD
12 1
Mo          2.066398973660997        1.129921359660035       10.029331514222573       -0.134655931782761        0.210741336062871        0.399544724604579
Mo         -0.041491581728715        4.743255541794464       10.095521421042905        0.283599233103214       -0.013412936962017        0.117542661498452
Mo          6.230547061986529        1.119509786120320       10.018449254718133       -0.073553637866505       -0.085717532354946        0.183242604141031
Mo          4.059339012037736        4.789851815133657        9.825197057782097       -0.108481061469904       -0.156803681415584        0.329669822784166
S           1.962536999392656        3.580065279563387        8.532792447346164        0.265902322140639        0.139425587387392        1.270232229742404
S           2.103182877158177        3.507128601053902       11.487384022285926       -0.212137445702953        0.025520010045217       -1.512099868797448
S           0.089631705032206        7.045004046492207        8.354725807508583       -0.054569117865711       -0.034231425666806        2.456945221314521
S          -0.021207881694075        7.044163360429994       11.640441275003029       -0.096105050875925       -0.179367435725690       -2.302458619102696
S           6.088905785728651        3.600953094801449        8.410649848792193       -0.177279699026342        0.213852372277417        2.181298928061580
S           6.185346474855781        3.487503861369875       11.770533145562988        0.434252833010374        0.034130638377872       -2.704390614058684
S           4.046137703249704        7.155084805584922        8.352694899893832       -0.044376231940964       -0.332251725731808        2.434549103005396
S           4.131321221269188        7.078735449185110       11.702737994956872       -0.082596211723163        0.178114536595650       -2.854076450303733
