# total energy = -9697.835237108553 eV 

 CRYSTAL
 PRIMVEC
        6.656943956970200        0.000000000000000        0.000000000000000
       -3.328471978485100        5.765079890335118        0.000000000000000
        0.000000000000000        0.000000000000000       19.999962657666302
 PRIMCOORD
12 1
Mo          1.649080124935716        0.996138436777064       10.112861130428307        0.352001663485552       -0.411309326593749       -2.815654895943667
Mo          0.034560855941402        3.797612781214222        9.952133878448031       -0.292277995700072        1.646407930167128        0.373872505184237
Mo          4.936922777368239        0.986101096678744       10.150434919204635        1.015534265961886       -1.171134413450173       -2.815201867364325
Mo          3.387583643739809        3.804926765539745       10.133419770450619       -3.070153856250627        1.512106296558222       -4.305122619056375
S           1.645316288822445        2.910908511840187        8.422042632576783        0.581738061076886       -0.459312872494614        0.414608567643752
S           1.644469525551118        2.918412219068484       11.371791083933914       -0.169550445250998       -0.019577159544143        3.642785837194409
S          -0.008865717961893        5.814229438958220        8.694741678996484       -0.170815942792154        0.034203914850694       -2.155718497065089
S           0.013669368721243        5.801669117100208       11.536845349486221       -0.688817613587658       -0.967796572246626        1.950118341179577
S           4.972338384913717        2.886127372265970        8.725906162131041       -0.028246151944624       -0.691252963589656       -3.889913184335483
S           4.941277084410494        2.898928009800828       11.353763414004042        2.358089345937817        0.087922768521240        5.866672794149668
S           3.320249321309451        5.724732153011921        8.587109546322608       -0.060753137951021        0.376758312661266       -0.382229879742402
S           3.315914319404671        5.767957021513320       11.393069339597973        0.173251549904583        0.062983828049979        4.115782898155697
