# total energy = -9685.461752285517 eV 

 CRYSTAL
 PRIMVEC
        6.784369838529400        0.000000000000000        0.000000000000000
       -3.392184919264700        5.875433889412424        0.000000000000000
        0.000000000000000        0.000000000000000       20.000016987341937
 PRIMCOORD
12 1
Mo          1.670771156084007        1.034270397513968        9.914416205351097       -0.033619759951566       -0.114070642238847        0.155411171321536
Mo          0.025705298881204        3.881800000208673        9.808481662507381       -0.214788768466952        0.185352966558303        0.275956111322240
Mo          5.078478713539262        1.022471699927782       10.018039991827813        0.061674107514699       -0.157298618995170        0.371792481797818
Mo          3.417054383781797        3.945499805496594        9.900236872388572       -0.326235084537050       -0.115001896219763        0.267229783295655
S           1.603495309454197        2.990337874047813        7.954657353188109        0.235382285544656       -0.153456874935853        4.201589133609322
S           1.704209958144150        2.936224383341735       12.033465276952919        0.054960182831193       -0.123112444764212       -4.541831594424755
S          -0.027535721863639        5.904367191462800        7.745771354918674       -0.075313815876817       -0.141417936116856        4.368552019483197
S           0.013760737343489        5.828379535523334       12.042175050951622        0.036544133993239        0.337983745679500       -4.551110709877890
S           5.039906178822303        2.933342383034328        8.054967653435684        0.204055693526770        0.078524610938572        4.077870679559352
S           5.071509808841125        2.932568964872736       12.158706101046139       -0.047059179287971       -0.202477549701574       -4.430043835702349
S           3.379553101062342        5.838386481035165        7.999432158811451        0.083180623732721        0.213035018217413        4.305638125470438
S           3.337824477496499        5.863878072266456       12.178500178487033        0.021219580977078        0.191939364468055       -4.501053622964994
