# total energy = -9614.512082662226 eV 

 CRYSTAL
 PRIMVEC
        4.204419078754800        0.000000000000000        0.000000000000000
       -2.102209539377400        3.641132032678625        0.000000000000000
        0.000000000000000        0.000000000000000       20.000118839462914
 PRIMCOORD
12 1
Mo          1.063390923120637        0.637116224657201       10.127935144244152       -3.746022874314572       -2.144996734983870        0.668460123885570
Mo         -0.037272175133161        2.457135246074368        9.860400810750550        4.347032390633196       -2.475252255329750       -1.841032041755207
Mo          3.159328310116351        0.617017419693121        9.839333728072633        4.785222098562341       -2.316815665567176       -1.679950299878977
Mo          2.146703224720230        2.395933199312565       10.171101074041912       -1.129451927494315        4.736138688851467        0.493827119635470
S           1.102165757632545        1.795161654939753        8.087419148218860       -0.395070745995546        1.278122434647526       -6.722711175373449
S           1.052951770989997        1.853920513774890       11.773982872136786       -3.225149280005310       -0.531382726064083       12.142485674187125
S          -0.023025501084801        3.671258377145535        8.190762087407021       -0.819357207370843       -0.345634323662972      -11.227949527712653
S           0.029692448417982        3.609717033764077       11.908490647304310       -0.135472000290610        0.874790216284561        7.378739238591093
S           3.148139089622060        1.810747436464696        7.950294963058627        0.526014003155329        0.363988665997497       -8.942991644313715
S           3.142026284723459        1.849927576975797       12.051038112634229        0.683955398227884       -1.031673087712878        8.478451459647371
S           2.162625780213383        3.604284503872419        8.013211151478838       -1.152847434048558       -0.252210420361037       -7.336981162168534
S           2.062665716615987        3.652506668054289       11.968806402524310        0.261147578941004        1.844925722121577        8.589652749476770
