# total energy = -9680.093639079885 eV 

 CRYSTAL
 PRIMVEC
        6.784369838529400        0.000000000000000        0.000000000000000
       -3.392184919264700        5.875433889412424        0.000000000000000
        0.000000000000000        0.000000000000000       20.000016987341937
 PRIMCOORD
12 1
Mo          1.714933333110930        0.974470248009235        9.926216938248237       -3.548023416988927        0.418345667757671       -0.167667111344259
Mo          0.019325277485051        3.896029537508005       10.025268737890764        1.072845980794585        1.817524435053068        0.387075640034595
Mo          5.057992630374838        0.936020510386353        9.906293279343426        3.053525239128666       -0.213717132190735        0.855594351509523
Mo          3.326571921682314        3.973152218521455        9.891080008417507        0.025852968053303        0.112780462096319       -0.053868491941361
S           1.713840371129943        2.911837965957142        8.914551382599264       -0.955561972389673        0.055815075014115       -9.990765758544235
S           1.635597590656151        2.965013856751535       10.999357025878091        1.868453640547762       -1.077726965215819        9.954133178562747
S          -0.008372590817729        5.869762834664397        9.112782528037286       -0.717866978518583       -1.496385279257530      -11.034509923879980
S           0.009184001450417        5.931088788945815       11.057100154447783       -0.289440010763200       -1.038171810965676       10.963125783829867
S           5.169222373877528        2.898677645344362        9.004647135617949       -1.307399085199414        0.638135748327543       -9.838508817989645
S           5.015301304728909        2.970222217476574       10.914264745615318       -0.533736829169899       -0.359257062736648        9.449535702974607
S           3.314976076754300        5.903013709680013        8.885355525436134        1.544532292778868        0.462957927074251       -8.990477626917068
S           3.412309395516729        5.855394217783376       11.072774084085736       -0.213181571163057        0.679698935043438        8.466333587926069
