# total energy = -9699.48084329637 eV 

 CRYSTAL
 PRIMVEC
        6.529570993135899        0.000000000000000        0.000000000000000
       -3.264785496567950        5.654771719330517        0.000000000000000
        0.000000000000000        0.000000000000000       20.000062892833274
 PRIMCOORD
12 1
Mo          1.641237052194177        0.891516281462009       10.164639319325197       -0.190241407182034        0.479681675055665       -1.160436048418170
Mo         -0.016787527023352        3.780159964356471        9.830789536974249        1.152174061829889       -0.606702455480811        4.263523951101009
Mo          4.823216488298476        0.962994189209669       10.000538141125704        1.041340439916755       -0.093244440221129        2.287996414471955
Mo          3.250901669765245        3.784660144684941       10.002436287413410        0.640503992507062       -0.401562784377138        1.294964967648040
S           1.655183562878416        2.798098121932647        8.330464544554541        0.053716796787098       -0.064163193596766        1.407848016806310
S           1.686429518951870        2.788049112174211       11.542222742130134       -0.662465851298305        0.838644346348870       -0.451833272947727
S          -0.065857253036769        5.677672230717643        8.494772710154514        0.060172582597926        0.552444441236555       -0.549760979668686
S           0.001346397538785        5.600958912947687       11.691128955671498        0.154028174313433       -0.189297297679571       -1.700054792917007
S           4.911681074984778        2.877038676368362        8.460502256797040       -1.100993145223292       -0.672833058095238       -0.552873815656248
S           4.971215744428894        2.782899892489024       11.734361245217052       -0.498510129024869        0.455971722444365       -2.656041254628185
S           3.277847250382619        5.701342578524860        8.584335570681864       -0.262563228973837       -0.054146171206792       -0.436291718727841
S           3.257059055211772        5.659118454740648       11.737813429401122       -0.387162286249827       -0.244792784428010       -1.747041981284311
