# total energy = -9671.55305573186 eV 

 CRYSTAL
 PRIMVEC
        8.727297025957800        0.000000000000000        0.000000000000000
       -4.363648512978900        7.558057406905104        0.000000000000000
        0.000000000000000        0.000000000000000       19.999988775209427
 PRIMCOORD
12 1
Mo          2.190330752900651        1.193607105078873        9.983800887973048       -0.072624440769036        0.135698771690711        0.098600564718766
Mo          0.041840407401847        5.027927598839380        9.911111231043845       -0.250593195750336        0.005382349761594       -0.200281569510794
Mo          6.640142123957427        1.220120633443733        9.886752472314694        0.017438514979466        0.206797776272896       -0.013479014342772
Mo          4.393488886970054        5.018345026704878       10.159621886587697        0.324007993984125       -0.164274796318250       -0.212300453716177
S           2.253942275463452        3.743674423200396        9.159835830239510        0.183474003528890       -0.922934658701589      -21.292104116337150
S           2.223032807586617        3.815253095218194       10.773382140883719       -0.357496113395043        0.972690412189408       21.432103317096001
S           0.008708969702203        7.505806206880991        9.044218344699026        0.745798170185289       -0.647165209552222       -7.142775112141186
S          -0.095466156707547        7.621027473136496       10.848408967956471       -0.470723433420360        0.482924608921290        7.226440903257119
S           6.608880073280743        3.776847751925765        9.088060794038627        0.511457696106859       -0.211024928868214       -0.946160729481834
S           6.516476325099605        3.774284544789241       11.119582668417330       -0.479709442982208        0.202370848872728        0.980975538716475
S           4.341688015472482        7.619683469394499        9.144708806304417       -1.753157609994987        1.523178500156832      -21.846494883536028
S           4.458505504354036        7.512437207161314       10.747911524513460        1.602128114637772       -1.583643931535615       21.915475298167149
