# total energy = -9641.980424442856 eV 

 CRYSTAL
 PRIMVEC
        4.745873239931600        0.000000000000000        0.000000000000000
       -2.372936619965800        4.110044872611764        0.000000000000000
        0.000000000000000        0.000000000000000       20.000016294860590
 PRIMCOORD
12 1
Mo          1.200234664489970        0.646245559081486        9.857730664395739       -2.117178929017215        2.667479583480474        9.972892469826025
Mo         -0.013066338204180        2.704310100134165       10.114552645599987        3.752535995751503       -0.244177004945874       -4.620006278066798
Mo          3.524308248164758        0.709931381262776        9.802112352135007        4.931531046407237       -3.076036028689996       12.463156888998327
Mo          2.402731212166091        2.720624988571077        9.919678547796565       -3.777313985092986        0.663350568291218        6.305084131270295
S           1.154656721655639        2.035652629264425        8.414701870824109       -0.235447077373257        2.253051764469682      -13.728009340083448
S           1.229449310980341        2.032737713920459       11.598733855209714        1.548199715965998       -1.411937358210636       10.103932914728709
S           0.019851513175310        4.102147264953194        8.408646611157279       -1.282923971945594       -4.181479755473105      -17.240956466529450
S           0.027620507669078        4.130553689230805       11.490993990091434        0.336157233178002        2.999750592494604       13.472683512630537
S           3.589666990663124        2.069040322094668        8.415122829780490        1.110710376850773        3.014326182825395      -16.992798877891541
S           3.582880391930022        2.068221658960780       11.617799451776492       -2.751696876470803       -2.316742131983923       11.508289371882661
S           2.399719481008030        4.087672826158727        8.448463538465658       -1.100736549013200       -1.340806729045443      -19.308276540776035
S           2.381726926380801        4.078003109432366       11.616160227159419       -0.413837236350890        0.973220573898035        8.064008214010721
