# total energy = -9497.029782094634 eV 

 CRYSTAL
 PRIMVEC
        3.631055529463300        0.000000000000000        0.000000000000000
       -1.815527764731650        3.144584864903454        0.000000000000000
        0.000000000000000        0.000000000000000       19.999933739505504
 PRIMCOORD
12 1
Mo          0.898508321821223        0.494197913832096        9.957600076940526        4.065563060340007        0.975512456279561       -5.368173720873330
Mo         -0.022087710785725        2.071457993353683       10.105112434036078       -3.737000355071528        1.490108185196215        0.406573866676435
Mo          2.728809399080047        0.515991872225488        9.929741166496273       -6.902280699897869        2.453997964444493       -7.575667316750952
Mo          1.783945569947484        2.096591796623074       10.095285345351140        5.985198388825658       -4.602687062327295        4.148661408734822
S           0.906708697628963        1.589272700529709        8.179716917305035        1.159625893450233        1.136725324475577      -11.129557993774252
S           0.869617828501048        1.585179048525792       11.815905669970338        3.213651815753902       -3.384897132965750       16.597473335458922
S           0.026457323009881        3.158445693176074        7.975983111919037       -2.995627569623823       -1.874296732201626      -14.145652067922887
S          -0.008157892458045        3.122826853959805       11.849020896399042        3.304339806960054        6.357039207384495       13.541190844068703
S           2.733405226063689        1.562889087947076        7.903335131518853       -0.968096363009119        3.938145558519898      -14.683234240698136
S           2.715081467439805        1.587777794968229       12.069604978075066       -2.062269911161783       -5.981312935993079       16.110863305620338
S           1.820225624375670        3.165517900030810        8.106059140362108        2.864192460209624       -3.304917534098407      -13.879781884586118
S           1.855805611297775        3.130475309327066       12.102903935913563       -3.927296783885787        2.796582701285918       15.977304464046458
