# total energy = -9686.367547416488 eV 

 CRYSTAL
 PRIMVEC
        6.529570993135899        0.000000000000000        0.000000000000000
       -3.264785496567950        5.654771719330517        0.000000000000000
        0.000000000000000        0.000000000000000       20.000062892833274
 PRIMCOORD
12 1
Mo          1.602927406220350        0.946602354188500       10.105135991821848        0.143215395139656       -0.022507190015296        0.305734127214489
Mo         -0.002748296431011        3.717266483593487        9.871982641498645        0.099393750398260        0.301432926815057       -0.455367512931623
Mo          4.966660715704083        0.919343354163456       10.057815537877492       -0.321767533688790        0.031707886786991       -0.040019238578015
Mo          3.243497789216128        3.738479100878888       10.084654033530578        0.021766454863717        0.263287766168266        0.144808965590710
S           1.580728170757886        2.869380142550513        7.747815253866640       -0.037307751973173       -0.029629148952727        4.401350825828727
S           1.564444726615204        2.870361537070781       12.015069461083263        0.421830028317962       -0.309718567562985       -4.438186265940237
S          -0.025904114043969        5.597264481679771        8.007793387743842        0.115740060267033        0.056604918258006        4.424953563390319
S           0.050191506310037        5.675769513730244       12.004684831375778       -0.188920116677361        0.156066802920469       -4.327238744106190
S           4.927328538912730        2.844076749037912        7.913253035248427       -0.003689277573761       -0.137901179642265        4.574444509928704
S           4.936919172787447        2.831588944513540       12.283512530795965       -0.348541214195340       -0.107209907499266       -4.278246351487875
S           3.232836958655635        5.650633930192167        7.741149867796848       -0.023829251851263       -0.012840352032282        4.192984161706148
S           3.266462943356086        5.684705231634350       12.047058482335734        0.122109456973060       -0.189294212354399       -4.505218040615159
