# total energy = -38803.39803995974 eV 

 CRYSTAL
 PRIMVEC
       12.740577282373799        0.000000000000000        0.000000000000000
       -6.370288641186900       11.033658440967770        0.000000000000000
        0.000000000000000        0.000000000000000       19.999979849788435
 PRIMCOORD
48 1
Mo          1.590438113601927        0.918231241548875       10.073771881994173        0.142329906815450        0.105746434926275       -2.087650567353422
S           1.553498083829413        2.716798151577933        8.438992737276401        0.060714571386378       -0.014574304778637       -0.036207062218258
S           1.627378143374442        2.797554300682259       11.560989660627493       -0.048863580292407        0.006072434158275        0.035436245146257
Mo         -0.002134046694798        3.676645214761953       10.021560996291004        0.064243926272085        0.016357879838166       -0.807288957962717
S           0.051303756600663        5.503787965577647        8.438995285391856       -0.095598029106083        0.005297246208949       -0.038047972903890
S          -0.055571849990258        5.527394981224157       11.560989660627493        0.090642739770304        0.004639043505706        0.039431484132854
Mo         -1.594704932933794        6.435060462032760        9.904643266686117        0.193144698168369        0.129123686639920        1.980993704391139
S          -1.611202706456740        8.326186391960535        8.438994011334129        0.017017882314425       -0.058576698152994       -0.024904230563082
S          -1.578212255641761        8.221824501267426       11.560989660627493       -0.023851106237894        0.064024353964051        0.056655569012904
Mo         -3.187278367288247        9.193475709303566       10.073771881994173        0.017064676412859        0.053279451944045       -1.319097095586967
S          -3.224219671118490       10.992041345274895        8.438992737276401        0.219025434148215        0.351366343610664        0.668443154597127
S          -3.150334515342548       11.072800042494679       11.560989660627493       -0.260932120399864       -0.379379810615275        0.863650135532179
Mo          4.775582434195377        0.918229967491147       10.021560996291004        0.007315048871077        0.052631019437179       -1.236581359428693
S           4.829021511548565        2.745372718306840        8.438995285391856       -0.144053060923705       -0.005766472745440       -0.059048752904226
S           4.722144630899916        2.768979733953351       11.560989660627493        0.143625486277028        0.019980308699879        0.000686999071510
Mo          3.183011547956380        3.676646488819681        9.904643266686117        0.000266623516899       -0.004116080889145        1.245287375731231
S           3.166513774433434        5.567772418747456        8.438994011334129        0.037391312863233       -0.102515071030043       -0.026714287996999
S           3.199505499306142        5.463410528054348       11.560989660627493       -0.036166438770167        0.101637038908335        0.030458844313416
Mo          1.590438113601927        6.435060462032760       10.073771881994173       -0.002860353544365        0.002765222684912       -0.990129441389736
S           1.553495535713956        8.233629920177274        8.438992737276401        0.071274611006527        0.055998908972247       -0.047465670879310
S           1.627381965547626        8.314382247108414       11.560989660627493       -0.076762633155244       -0.056652740798164        0.004833161881076
Mo         -0.002134046694798        9.193474435245838       10.021571188752832       -0.007422006810354        0.001539063039692       -0.249069816446932
S           0.051303756600663       11.020610815772891        8.438995285391856       -1.007185633158373       -0.147002374677180       -0.436636246705319
S          -0.055570575932530       11.044230571996684       11.560989660627493        0.872364636478939       -0.003295641503970       -0.031871666131509
Mo          7.960728028846555        0.918231241548875        9.904643266686117       -0.024126471509446        0.183980253967438        2.673993476248698
S           7.944230255323609        2.809357171476650        8.438994011334129        0.027590263235260       -0.063992472270612       -0.008474616914680
S           7.977220706138588        2.704995280783542       11.560989660627493       -0.024614209996966        0.062042803872687        0.076152252992158
Mo          6.368154594492102        3.676646488819681       10.073771881994173       -0.007381383362263        0.002605557107289       -0.978658973733578
S           6.331213290661859        5.475215946964195        8.438992737276401        0.068736673942578        0.082722452944761       -0.041946795478879
S           6.405097172380073        5.555966999837609       11.560989660627493       -0.063951334601660       -0.087850263379711        0.019264770370533
Mo          4.775582434195377        6.435059187975031       10.021571188752832        0.002272341988773        0.004015550710642       -0.298561774632591
S           4.829020237490838        8.262198116617540        8.438995285391856       -0.094762420205482        0.043361417069988       -0.020158743338961
S           4.722144630899916        8.285811502552692       11.560989660627493        0.095945642408734       -0.036374183998378        0.054791518388487
Mo          3.183011547956380        9.193475709303566        9.904641992628390       -0.019971566945226       -0.019114360768425        1.381359985988550
S           3.166517596606619       11.084600365173612        8.438994011334129        0.803140224048841       -0.344199647458248       -0.667184084816745
S           3.199501677132957       10.980241022595960       11.560989660627493       -0.578489470781780        0.252358515969267       -0.345547934558172
Mo         11.145871075382276        0.918231241548875       10.073771881994173        0.007930571242781        0.055723543700695       -1.477588706981764
S          11.108931045609761        2.716801973751117        8.438992737276401        0.395965233184835        0.222257055154877        0.439095765087827
S          11.182811105154791        2.797553026624531       11.560989660627493       -0.467626795389948       -0.251503880896775        0.613618211852616
Mo          9.553298915085552        3.676645214761953       10.021571188752832        0.012106558862339       -0.004967887746896       -0.235560720183738
S           9.606735444323284        5.503782869346733        8.438995285391856       -0.653643621080974       -0.325874615712852       -0.921725982565674
S           9.499862385847820        5.527397529339614       11.560989660627493        0.471456455259010        0.164440889656646       -0.644677151911879
Mo          7.960728028846555        6.435060462032760        9.904641992628390       -0.002218091687842        0.009906207794233        1.353021017178351
S           7.944232803439065        8.326187666018262        8.438994011334129        0.154285027633957       -0.027173230116252        0.222384324818200
S           7.977218158023132        8.221824501267426       11.560989660627493       -0.177885708312101       -0.021281030370076        0.304753765141261
Mo          6.368154594492102        9.193475709303566       10.073761689532347        0.009732401142908        0.004046918183219       -1.145602833435563
S           6.331209468488675       10.992050263678992        8.438992737276401        0.283154946278525        0.386543678552951        0.900005036248235
S           6.405100994553258       11.072791124090582       11.560989660627493       -0.450371857258183       -0.490252513313914        1.212084134677811
