# total energy = -38800.734648099315 eV 

 CRYSTAL
 PRIMVEC
       12.740577282373799        0.000000000000000        0.000000000000000
       -6.370288641186900       11.033658440967770        0.000000000000000
        0.000000000000000        0.000000000000000       19.999979849788435
 PRIMCOORD
48 1
Mo          1.590438113601927        0.918231241548875        9.944978660304384       -0.087839207631180       -0.050714004063985        2.846348482080543
S           1.513479930585476        2.712744099886681        8.472881398789786        1.301251574795300        0.751265366389098       -0.938385452939349
S           1.667395022560650        2.801608352373510       11.594880870256334       -1.213638110122498       -0.700735967614539       -0.230852256861675
Mo         -0.002132772637069        3.676646488819681        9.944978660304384       -0.087629919740383       -0.050536854977057        2.846362880264677
S          -0.079092229711248        5.471159347157487        8.472881398789786        1.301269315415036        0.751282592787972       -0.938402422227792
S           0.074824136321653        5.560023599644317       11.594880870256334       -1.213670506036798       -0.700717455663510       -0.230815232959618
Mo         -1.594706206991522        6.435060462032760        9.944978660304384       -0.087397491910801       -0.050458950516478        2.846367251142003
S          -1.671663115950245        8.229574594428295        8.472881398789786        1.301264430316848        0.751290820321763       -0.938402422227792
S          -1.517749298032800        8.318437572857395       11.594880870256334       -1.213674362693262       -0.700710770792305       -0.230815232959618
Mo         -3.187277093230519        9.193474435245838        9.944978660304384       -0.087581068758502       -0.050621444308841        2.846362880264677
S          -3.264236550304698       10.987991115756829        8.472881398789786        1.301240519046769        0.751284135450558       -0.938385452939349
S          -3.110320184271797       11.076850272012745       11.594880870256334       -1.213674105582832       -0.700673489779817       -0.230852256861675
Mo          4.775582434195377        0.918231241548875       10.055011381945878       -0.087791899311884       -0.050996568427603       -2.846506090774719
S           4.852539343154100        2.801608352373510        8.405105349820742       -1.213672305809815       -0.700714113227908        0.230897508297523
S           4.698624251178926        2.712744099886681       11.527099725056379        1.301250032132714        0.751277193468922        0.938541776081369
Mo          3.183011547956380        3.676646488819681       10.055011381945878       -0.088060322601800       -0.050531455658007       -2.846506090774719
S           3.259968456915103        5.560023599644317        8.405105349820742       -1.213633225024310       -0.700714627448769        0.230911392260794
S           3.106052090882202        5.471159347157487       11.527099725056379        1.301254660120472        0.751296476751244        0.938527377897236
Mo          1.590438113601927        6.435060462032760       10.055011381945878       -0.087833036980837       -0.050455093860014       -2.846539258020312
S           1.667395022560650        8.318437572857395        8.405105349820742       -1.213631939472155       -0.700690716178691        0.230899822291401
S           1.513479930585476        8.229574594428295       11.527099725056379        1.301281913826152        0.751295448309520        0.938545889848264
Mo         -0.002132772637069        9.193474435245838       10.055011381945878       -0.087611922010216       -0.050838188402135       -2.846539258020312
S           0.074824136321653       11.076850272012745        8.405105349820742       -1.213653279637924       -0.700679917540591        0.230911392260794
S          -0.079092229711248       10.987991115756829       11.527099725056379        1.301269058304605        0.751271279929010        0.938527377897236
Mo          7.960726754788827        0.918231241548875        9.944978660304384       -0.087346069824610       -0.050938718580638        2.846325856362620
S           7.883768571772375        2.712744099886681        8.472881398789786        1.301244375703233        0.751246340217208       -0.938398051350466
S           8.037683663747549        2.801608352373510       11.594880870256334       -1.213685675552225       -0.700733910731091       -0.230834516241939
Mo          6.368154594492102        3.676646488819681        9.944978660304384       -0.087516019819470       -0.050527341891112        2.846302716423834
S           6.291196411475651        5.471159347157487        8.472881398789786        1.301220721543586        0.751287477886160       -0.938398051350466
S           6.445112777508552        5.560023599644317       11.594880870256334       -1.213696217079894       -0.700715655890493       -0.230834516241939
Mo          4.775582434195377        6.435060462032760        9.944978660304384       -0.087787271324127       -0.050174586379843        2.846325856362620
S           4.698624251178926        8.229574594428295        8.472881398789786        1.301230491739962        0.751283878340127       -0.938390595147968
S           4.852539343154100        8.318437572857395       11.594880870256334       -1.213666392269903       -0.700711542123598       -0.230848914426073
Mo          3.183011547956380        9.193474435245838        9.944978660304384       -0.087586725187983       -0.050568222449634        2.846351824516146
S           3.106052090882202       10.987991115756829        8.472881398789786        1.301246175476250        0.751256624634446       -0.938390595147968
S           3.259968456915103       11.076850272012745       11.594880870256334       -1.213667163601196       -0.700710256571443       -0.230848914426073
Mo         11.145871075382276        0.918231241548875       10.055011381945878       -0.087405205223729       -0.050712975622261       -2.846534887142985
S          11.222830532456456        2.801608352373510        8.405105349820742       -1.213664078276024       -0.700726197418162        0.230888252322009
S          11.068910344250369        2.712744099886681       11.527099725056379        1.301302225550198        0.751268194603839        0.938542033191800
Mo          9.553298915085552        3.676646488819681       10.055011381945878       -0.087188718240866       -0.050538654750074       -2.846527945161350
S           9.630257098102001        5.560023599644317        8.405105349820742       -1.213631682361724       -0.700690459068260        0.230724472977491
S           9.476340732069101        5.471159347157487       11.527099725056379        1.301284227820031        0.751296733861675        0.938541518970938
Mo          7.960726754788827        6.435060462032760       10.055011381945878       -0.087362267781760       -0.050238349766719       -2.846527945161350
S           8.037683663747549        8.318437572857395        8.405105349820742       -1.213678733570589       -0.700700743485498        0.230888252322009
S           7.883768571772375        8.229574594428295       11.527099725056379        1.301268544083743        0.751326815782096        0.938542033191800
Mo          6.368154594492102        9.193474435245838       10.055011381945878       -0.087621435096162       -0.050338622834791       -2.846534887142985
S           6.445112777508552       11.076850272012745        8.405105349820742       -1.213644794993703       -0.700698172381188        0.230925790444928
S           6.291196411475651       10.987991115756829       11.527099725056379        1.301262373433400        0.751284135450558        0.938509380167069
