# total energy = -9694.177459607456 eV 

 CRYSTAL
 PRIMVEC
        5.956207443844399        0.000000000000000        0.000000000000000
       -2.978103721922200        5.158224551555346        0.000000000000000
        0.000000000000000        0.000000000000000       19.999943953578928
 PRIMCOORD
12 1
Mo          1.513895797830119        0.864227831479491        9.903231255486544        0.294546995253242       -0.074413415147615        1.510931816109623
Mo         -0.009687771407413        3.450954522853374        9.938116762485139        0.246642693978725        0.122261409237754        0.692997972084542
Mo          4.424700927465065        0.906871298673695       10.136467404676324        0.651585452081186       -0.975487773678189       -0.110869103152606
Mo          3.025198262939189        3.439036747378986        9.966773267738963       -0.815181219751286       -0.437152267340244        1.296954231052332
S           1.514161444682115        2.560409784404002        8.188059721989568       -0.311513198371046        0.358333779179091        2.420023392098210
S           1.489467008619936        2.594024236734082       12.096592138646612        0.088878962213958       -0.026651038830985       -3.681025357369360
S          -0.035077892499033        5.164047339952448        8.014106301109114        0.261290532340614       -0.190389502790264        3.427839717143713
S           0.047060590634559        5.154330978749305       12.061542240322565       -0.180612107321939        0.032627827908945       -3.837279593793994
S           4.424580016453955        2.574280600299227        8.108044626809706        0.577852608244307       -0.059676616576616        3.048896737150630
S           4.495413617859131        2.585623006134539       11.895726785672636        0.030209447195390        0.181871434212752       -3.196300204100098
S           3.012219091298307        5.114249871997443        8.270650281268146       -0.677636138055893        0.696419083478818        1.843546067549077
S           3.028085236687220        5.124186612876009       11.887340445591704       -0.166064027807260        0.372257080346552       -3.415715417661640
