# total energy = -9692.542897300817 eV 

 CRYSTAL
 PRIMVEC
        7.039168683922899        0.000000000000000        0.000000000000000
       -3.519584341961449        6.096096059494329        0.000000000000000
        0.000000000000000        0.000000000000000       19.999981709846463
 PRIMCOORD
12 1
Mo          1.837903714115612        0.960493159087543        9.912410222074731       -1.192965917252921       -0.083028414357596       -1.103357018525484
Mo         -0.008262576201189        4.005951478675891       10.160785177336345       -0.062095254400601        0.920960564812723       -2.572289588628315
Mo          5.328899176384176        0.957423377624484       10.190389809070320       -2.676478191453438        2.016872436589068       -3.685366409885590
Mo          3.574725669846960        4.037599581078808       10.185787600584771       -0.106434205329078        0.745265180261921       -3.021319072326486
S           1.706283930229885        3.053403429281893        8.637000846156452        0.594585097980373        0.070372924725171       -1.997515620684253
S           1.785276073367131        3.009461418772504       11.024836798036066        0.382366148270808       -1.012163805322507        4.803960820991142
S           0.076614311955817        6.036329997783481        8.705884039146715        0.306683121815141       -0.174706280722922       -2.583166645409830
S          -0.025711267534897        6.050971468646041       11.191068878257511       -0.200283369283811        0.337726121027684        4.867985432065623
S           5.347495956130233        3.024951813378345        8.752764198664774       -0.473710285296754       -0.319428085877538       -1.950898414227092
S           5.301877919557202        3.075816142371503       11.286479882350006       -0.083095777290506       -0.735341746068814        4.199466687001795
S           3.516014075604964        6.085227583046352        8.712799318461803        0.101405639520476       -0.455551604000186       -2.368513374139991
S           3.434967199128881        6.152406593298238       11.176502022583001        3.410022478499452       -1.310977291067003        5.411013203768482
