# total energy = -9679.135707866324 eV 

 CRYSTAL
 PRIMVEC
        7.039168683922899        0.000000000000000        0.000000000000000
       -3.519584341961449        6.096096059494329        0.000000000000000
        0.000000000000000        0.000000000000000       19.999981709846463
 PRIMCOORD
12 1
Mo          1.753965147144174        1.068433179520553       10.034166722800547        2.194567626071832        0.255492692122598       -0.320140281771281
Mo         -0.011209172212279        4.065238876916232       10.024149985763325       -0.176622010543961       -1.394007248087185        0.484367255549374
Mo          5.232602644871243        1.027485631369305        9.932790023248424        3.422409801952393        1.814351435224663        0.154646267789447
Mo          3.452138547216442        4.077739032665143       10.197890747219908        2.203312980270307       -3.716900747131687       -0.190636843024842
S           1.714737971819276        3.107051045572675        9.047425911524392        0.769730523319364        0.058085360119440      -10.616578461026576
S           1.764517564918242        3.006238887349004       10.948798290078594       -1.157801180721752        0.518232298852070       10.123105125344098
S           0.060614281537260        6.049182111966587        9.108566018962341       -1.730368369836934        0.150097727155437      -11.325701628009270
S           0.002588302325078        6.136219320992689       10.934293379088503       -0.785561326774074        0.020966327202588       11.775208308667294
S           5.322191552545267        3.045057790890234        8.987473311843422       -1.482146246480858        0.739060848452566       -6.851855173737415
S           5.307059451625438        3.075951294410235       11.106087106487117       -0.579811275507316       -0.573478131372053        6.998236112502979
S           3.589945056458469        6.082529469689804        9.157299591594876       -1.562702801155261        0.080862516087239      -11.572855200414301
S           3.613446728943483        6.039985438081042       10.983193780018848       -1.115007720593741        2.047236921374324       11.342204775240925
