# total energy = -9568.339712779247 eV 

 CRYSTAL
 PRIMVEC
        4.204419078754800        0.000000000000000        0.000000000000000
       -2.102209539377400        3.641132032678625        0.000000000000000
        0.000000000000000        0.000000000000000       20.000118839462914
 PRIMCOORD
12 1
Mo          1.080926714214308        0.573085444739212        9.901271968615125      -12.901997600538644        9.185982341731165        1.964935101094603
Mo         -0.007225714628748        2.448737339406462        9.961409876908094       10.422678115301633       -8.772202698116811        6.001925222132243
Mo          3.108702479547156        0.617515643353954       10.134727383265881       12.931619550399306       -1.798198215289537       -8.963599816685983
Mo          2.130922778591940        2.436341871078478       10.005393986658580      -11.853814166502048        2.911048522257142        3.042521684015121
S           1.054850066204055        1.832759672551517        8.380698821499310       -0.103943576584425        0.190245520948929      -21.876317379532832
S           1.107208537875604        1.785623089375782       11.654451658169696       -1.754054154067724       -0.322205906973567       18.185971769041384
S           0.009278732464904        3.660487916791489        8.499800343836551        4.118412366533065        0.117957637734012      -31.598533092718462
S           0.031364545885603        3.641631097223273       11.510019351766770       -6.313237617256713       -3.229932048241919       31.345468808616225
S           3.117360639756036        1.846386194785762        8.602426009129877        1.053645488031790       -4.373575700193611      -34.948509744062449
S           3.179846716104490        1.799632634188101       11.574809029328476        1.238929034773735        4.586713305472975       26.663469091879485
S           2.077350070690446        3.617446858240368        8.246084254087185       -0.652614665136296        1.200496167554707      -16.613857697671477
S           2.121163901468242        3.621517156350511       11.530983426177258        3.814377225046321        0.303671073116513       26.796526053892144
