# total energy = -9483.832050068897 eV 

 CRYSTAL
 PRIMVEC
        3.822194351802100        0.000000000000000        0.000000000000000
       -1.911097175901050        3.310115863519414        0.000000000000000
        0.000000000000000        0.000000000000000       20.000094431321056
 PRIMCOORD
12 1
Mo          0.959324533750670        0.553544710366517        9.921463664226348       -0.537593485634211      -12.752063395617297       -3.224382062479343
Mo          0.038426048696407        2.176214513847358        9.835660752100482      -23.676979998303064        6.728223880123537        6.380421858417191
Mo          2.835110749352032        0.538753200444478       10.181673304624942        1.809168860267920        9.979921611897881      -17.269844623220166
Mo          1.875586314836762        2.230332199235654       10.149632996032089       22.470537637811681       -2.095849818996551      -19.795467640188576
S           0.942709454903387        1.681370299896948        8.504951175279221        9.770566872389146       -1.466561240598140      -43.930986094368222
S           0.965138855798632        1.671512860663650       11.443725186524217       -9.614597000101146       -5.699839234822562       43.534446219370210
S          -0.016444608979193        3.280241210246293        8.353460795462157        3.361481571797892        5.709721274236286      -30.439317804626462
S          -0.008357992389086        3.292344188661275       11.581191170825651       -5.900307980727091       -3.948361070162568       33.748199210238894
S           2.830696879314571        1.655072838317679        8.327950323699923       -4.228601926816659       -4.053163138475949      -24.478710742969415
S           2.868521696839439        1.642224149784661       11.647752774365109        4.232146451217793        3.066677466113696       34.285284131440669
S           1.920371348276263        3.320828327629209        8.316138596494550       -3.850090635237147       -0.203941793605858      -23.387060990806997
S           1.919212076729361        3.300854686604997       11.531108958233988        6.164269633334889        4.735235202797094       44.577418539192223
