# total energy = -9696.588703596359 eV 

 CRYSTAL
 PRIMVEC
        6.083633325403599        0.000000000000000        0.000000000000000
       -3.041816662701800        5.268578550632652        0.000000000000000
        0.000000000000000        0.000000000000000       20.000011477230910
 PRIMCOORD
12 1
Mo          1.503139863497393        0.836220343473359        9.932798016179724        0.884635746017088        0.520827314431690        2.146349135850688
Mo          0.026329356669014        3.552200647083204        9.858967042142627       -0.492659838278938       -1.249087467900734        2.280330152752195
Mo          4.522415448001908        0.910618312136384        9.977204280911844        0.756678055181545       -0.471009854440443        0.929339022426227
Mo          3.038866708902311        3.532788989868506       10.162084072580861        0.322369429207654       -0.466717138685232       -0.906744671974837
S           1.582630441617114        2.580613986849623        8.285460833786953       -0.141308149962838        0.401642745721165        1.710202427405906
S           1.528889449910497        2.649675392359604       11.868358886266812       -0.130026915583862       -0.048006374115606       -3.122583043999507
S           0.079304418939964        5.224197837160500        8.219171131620024       -0.684703332471530        0.709202614105859        1.554853476808661
S          -0.050483206060864        5.287166483895090       11.986334528803035        0.340997337040714        0.001225131203497       -3.689193498650343
S           4.540883533687835        2.619380723489092        8.066336270129238        0.319989357948311        0.183140274189511        3.296580728374719
S           4.636188516636943        2.600641307756851       11.787553026622136       -0.338486910792878        0.502162125586142       -2.730804854182760
S           3.061857367602344        5.229771662013235        8.313983340269775       -0.497886122008943        0.028942921212510        1.671184633956457
S           3.065725950033968        5.302693132868185       11.883915345043201       -0.339598399185892       -0.112322291308359       -3.139513765877838
