# total energy = -9686.680997665442 eV 

 CRYSTAL
 PRIMVEC
        7.548819292434800        0.000000000000000        0.000000000000000
       -3.774409646217400        6.537466227730848        0.000000000000000
        0.000000000000000        0.000000000000000       20.000053200316945
 PRIMCOORD
12 1
Mo          1.901985411283287        1.129108606610501       10.134967029184251       -1.394457962672648       -0.653528178497476        0.460279864825433
Mo         -0.047066133406402        4.339059064645736        9.800065925921167        1.034826032927669        0.273916454273480       -0.271586519548174
Mo          5.726584892330298        1.035534952425338       10.183921122295690        0.241481459187751       -0.027629344020765       -0.170376026844792
Mo          3.745362544462040        4.378003423375406        9.998811995134320       -1.070048876416234        0.575632973893879        0.692223041245646
S           1.901970313644703        3.223794992617559        8.827100117083104       -0.281758065307151        0.066560748365413       -3.769947771246150
S           1.817588856711937        3.330320156062753       10.947963543750539        0.181501966523471        0.125541367005436        3.812255292659657
S           0.044507083666266        6.535719430946578        9.056413620257114        0.075959420168943        0.082322646224627       -3.750015799307290
S          -0.000982101389946        6.551280567036003       11.144986217519229       -0.048171439012279       -0.168750831810731        3.385671035362921
S           5.585362335889357        3.311582476815071        8.933412403824251        0.142499342589449       -0.690335079351150       -5.202741670505356
S           5.649552965860647        3.254769307938278       10.884305860421295        0.045133679270555       -0.174829436619349        4.981474233399221
S           3.810578304093243        6.511693803784546        8.898447782625553        0.104436971501426        0.603855214568425       -3.959452557043500
S           3.728241822306798        6.482882980073040       11.069017164805953        0.968597728349480       -0.012756534031791        3.792217134112813
