# total energy = -9350.50076557136 eV 

 CRYSTAL
 PRIMVEC
        3.631055529463300        0.000000000000000        0.000000000000000
       -1.815527764731650        3.144584864903454        0.000000000000000
        0.000000000000000        0.000000000000000       19.999933739505504
 PRIMCOORD
12 1
Mo          0.897779568976460        0.533862475119295        9.926599940357734       15.211728073960019        5.601582426749983       21.414487395919174
Mo         -0.018371688556873        2.066098192286641       10.099081613907195        1.967404389673487       12.688086349972542      -11.728434007736819
Mo          2.750656733989722        0.522562630311605       10.023223054207859      -21.251995660439594        2.334133081533663        7.816948486912989
Mo          1.780980450002124        2.107556495005395        9.831264398798357       -0.073560322737709      -21.808900710542773       21.262058962707140
S           0.877231425735227        1.562922493657947        8.404095088903796       -2.301209833739552        2.924605441060493      -51.120153184229061
S           0.938085374670161        1.565088055175719       11.368396594347185        6.252275705635758       -0.618184235995931       59.022018561614999
S          -0.029159554534908        3.167125005208151        8.674027393858545        9.430618288796294       -6.143505909151893      -64.599613356488248
S          -0.002169192573301        3.145558713996456       11.432071510322960       -3.156594126026985        1.453368647275451       56.686256428390806
S           2.748994073662781        1.582631863071874        8.568568469483024        4.641866064016953       -3.526518957654352      -58.768516932669712
S           2.694400064460641        1.577378451931846       11.382802080949224       -7.586886330405636        3.364830949381932       61.001441064162577
S           1.832520378398432        3.152308483120176        8.739508396854674       -7.838952254704478        9.072098104554760      -93.308922231660247
S           1.800616472094356        3.169982645909838       11.426620932867682        4.705306777302737       -5.341595187183874       52.322428813076392
