# total energy = -9677.538158908874 eV 

 CRYSTAL
 PRIMVEC
        8.918435848296600        0.000000000000000        0.000000000000000
       -4.459217924148300        7.723588405521063        0.000000000000000
        0.000000000000000        0.000000000000000       20.000056148469234
 PRIMCOORD
12 1
Mo          2.276952478774832        1.270536424132860        9.984054263786733        0.170815685681723       -0.157039965901630       -0.223649308138494
Mo         -0.106495934308095        5.222524552314385       10.103082384148856       -0.333758649967631        0.277469206208405        0.389928280266031
Mo          6.717000225067219        1.325767405497777        9.804938181896715       -0.041033282117698        0.178487860941396       -0.143317210870314
Mo          4.564564272075549        5.083031297211178        9.908094161979623        0.380475872382433       -0.175438788340710       -0.274136797912808
S           2.283682330465957        3.874012459872698        8.854452313990166        0.452015307132842       -0.103493633330255        0.832235097526045
S           2.173623481036468        3.920900244501532       10.990260735186272       -0.444789732691738       -0.027716504456859       -0.741799845873521
S          -0.012746228514386        7.755988191114340        8.920155322728151        0.019825271110013        0.359030805557408        0.162623376020231
S           0.075692548731663        7.680840558813007       11.030963584554312       -0.194130973781509       -0.430983159659930       -0.201568407217720
S           6.715790885166190        3.909300926837238        9.087156601361846       -0.058931510547711       -0.340850012763777       -0.616067445817886
S           6.626410321094562        3.926408270481440       11.145397818610974        0.063354838401846        0.248720146260834        0.725441451814493
S           4.433807516729333        7.771915625695812        8.802852919702676       -0.221407048070143        0.016417272347716        0.682114487542253
S           4.370920950032239        7.792087343897490       10.937284334403804        0.207564222467571        0.155396773137402       -0.591803934448741
