# total energy = -9691.131035645201 eV 

 CRYSTAL
 PRIMVEC
        7.293967529316399        0.000000000000000        0.000000000000000
       -3.646983764658200        6.316758229576235        0.000000000000000
        0.000000000000000        0.000000000000000       19.999949555872629
 PRIMCOORD
12 1
Mo          1.821661825875994        1.074951382220016       10.128008707565415       -0.347534112637293        0.106483313421390       -0.023308089007719
Mo          0.033776904834758        4.272812013847570        9.929841821348431       -0.379729480801373       -0.462510812034822        0.606449201706321
Mo          5.483666057867316        1.016257554908360        9.875687030030267       -0.200901205649394        0.364787765216903        1.013240583807343
Mo          3.546549478763278        4.260017665404396        9.905068590031860        0.498854657002348       -0.313773199059133        1.122419957207719
S           1.806754415039577        3.130080708964628        8.365010803734208        0.024917600305492        0.299513340337553        2.423524464836513
S           1.758366963846845        3.183552784922047       11.736160057129755        0.114271959706284        0.052993288034393       -3.115064877887976
S           0.009860714702883        6.276227840206082        8.155687794181132        0.236563965085322        0.049042014931490        3.367916017442951
S          -0.094383939829354        6.376884592110648       11.770453374865587        0.189303211219482       -0.126142234082576       -3.393826578232788
S           5.470486587938593        3.157657741399468        8.391935755471925       -0.080581237275775        0.099427688975146        1.738972056187953
S           5.426115924664256        3.116733477782732       11.619128348121874        0.066733012354153        0.182635823523979       -2.834544285085007
S           3.670190251749473        6.376266063664162        8.308591235498191       -0.237308299782934       -0.226479579762438        2.773020072951555
S           3.609367315316009        6.365511108542185       11.854218756765762        0.115410187584118       -0.025977409501885       -3.678798523926866
