# total energy = -9663.385451507482 eV 

 CRYSTAL
 PRIMVEC
        8.918435848296600        0.000000000000000        0.000000000000000
       -4.459217924148300        7.723588405521063        0.000000000000000
        0.000000000000000        0.000000000000000       20.000056148469234
 PRIMCOORD
12 1
Mo          2.288810431078728        1.331371750584846        9.856081844112357        0.070220201129184        0.013452531968384       -0.134314746240885
Mo          0.062402295630531        5.083866062806579        9.883252750767777        0.401915539888407       -0.027075013931628       -0.324931277541681
Mo          6.631330622152066        1.261890000577937        9.821193814917406       -0.183157500588385       -0.272839418678213       -0.015166687211555
Mo          4.494790889216400        5.122374085112353       10.112934580230469       -0.093919869323246        0.194463160458302        0.517093042532512
S           2.125641404329047        3.898861897676807        7.966635402946011       -0.407344426638004       -0.180203558847153        3.188182456463582
S           2.240275411348712        3.872424086448116       11.943175093174311        0.258733826215206        0.145844092185731       -3.167729064570748
S          -0.007664503768026        7.700996223830158        7.921382367608170        0.138219482355786        0.256101015402236        3.059979739387340
S           0.056451915232548        7.713437441838531       11.870284716986182        0.080840147479746        0.114115636564264       -3.096423857422937
S           6.663761622270812        3.891827927323255        7.879615548843427        0.173831591036816       -0.255427900293998        3.095566137025274
S           6.689491309693148        3.807876906996069       12.000138926624551       -0.379227858350581        0.221476467886501       -3.108946678072991
S           4.448588932304300        7.649359372112105        7.966949331887871       -0.079046802223840        0.270512055057216        2.909066715055347
S           4.434677956068127        7.692359610554668       11.946705010083068        0.018935669018912       -0.480419067771641       -2.922375522292827
