# total energy = -9486.72489536041 eV 

 CRYSTAL
 PRIMVEC
        4.363648512978900        0.000000000000000        0.000000000000000
       -2.181824256489450        3.779028703452552        0.000000000000000
        0.000000000000000        0.000000000000000       19.999988775209427
 PRIMCOORD
12 1
Mo          1.104078128538085        0.638509123202232       10.056182034952382        8.612468472009210      -24.334829431813585      -20.732759602465080
Mo          0.042310808711546        2.504907483295854        9.855923731935349      -35.972987082144215       21.248986697066137       22.944451554569753
Mo          3.240029093669992        0.666149345613143        9.997689944825009       -1.285997727147651       -2.487524136199192       -7.059344062848717
Mo          2.150548678502376        2.541726203988965       10.117213332149460       25.864716971555737        3.234560035999094      -36.873351815885350
S           1.048324664217456        1.905622323847086        8.877916208950589       21.852335661196015      -10.765564442678567      -70.852334891611278
S           1.083445489274167        1.886871289821964       11.013861064974579      -15.180040756007505        3.643223182037462       80.350174959690975
S          -0.009600463093405        3.782706386419290        8.704050561234608       -2.168414353035175        6.730867746685039      -49.014561193893222
S           0.021000494833562        3.795356603458416       11.331242312269072        1.746139266561231       -6.462772529678792       42.278214938145410
S           3.327319954888474        1.853846325146038        8.606149925021668       -8.591103109417782        0.999059400877636      -39.856598746927439
S           3.274864972478806        1.912056087214622       11.190857194133772       10.519807494134479        1.649228174484265       53.650238352726674
S           2.179631959476529        3.768140527682967        8.718602456295688        1.292313130663179       -1.309736990348080      -41.061850686123506
S           2.210116407988200        3.791145246278540       11.133630998440013       -6.689237711257095        7.854502807789447       66.227721194621779
