# total energy = -9680.770313847255 eV 

 CRYSTAL
 PRIMVEC
        6.338432170797099        0.000000000000000        0.000000000000000
       -3.169216085398550        5.489240720714558        0.000000000000000
        0.000000000000000        0.000000000000000       19.999965611692456
 PRIMCOORD
12 1
Mo          1.542581068190805        0.927284737486064        9.850047826689240        2.206763916474574        0.454897000842977        4.576488280744359
Mo          0.048411043390897        3.672495205878444       10.117613331601531       -2.042836219238112       -2.029479846570905       -0.630770048701568
Mo          4.698132761515549        0.936604134306787        9.839546946111881        3.583140845200801        1.477301000409526        1.476420397183508
Mo          3.123323934952328        3.666393831070835       10.006917050641080        2.448876067549455       -1.210364580115590       -0.161572051468059
S           1.591655745429984        2.754546345136747        8.937582977461716       -1.600091285803753        1.975051368110926      -12.491654494944424
S           1.629961426410979        2.736509702551527       11.278108637790950       -0.139331227859232       -1.906586459893866        9.262294517411378
S           0.003225628131719        5.482656991218751        9.009997663483423       -2.385041718193880       -3.104752692723266      -13.047442914445968
S           0.031938092022212        5.520716107188302       11.237552179546105       -1.057421154710352        1.739449253147804        8.981524527490382
S           4.724177379305355        2.771737440870383        8.733011980678892        1.312957041385350        2.271810541512098       -8.680677298237040
S           4.733063861208813        2.715128269309777       11.098252455728497       -0.115907696268015       -0.416535096102892       10.514407917974012
S           3.196288163043241        5.487743583035816        8.817875981327260       -1.961052476476765       -1.098728516547447      -11.914613070109777
S           3.121663265723579        5.501250781991784       11.005959178732738       -0.250056092060072        1.847938027930636       12.115594494213628
