# total energy = -38803.373553648875 eV 

 CRYSTAL
 PRIMVEC
       12.740577282373799        0.000000000000000        0.000000000000000
       -6.370288641186900       11.033658440967770        0.000000000000000
        0.000000000000000        0.000000000000000       19.999979849788435
 PRIMCOORD
48 1
Mo          1.590438113601927        0.918231241548875       10.003651566805173        0.135156268681398        0.071632251615984       -1.616527841433790
S           1.563214048064951        2.804305532584189        8.438994011334129        0.329702218698467       -0.510986412686920       -0.153597000120723
S           1.617663453196632        2.710046919676003       11.560989660627493       -0.318107566704158        0.553809440514490        0.040311316027579
Mo         -0.002134046694798        3.676646488819681        9.996337201387361        0.148103835763388        0.109441626039948        1.610832845388156
S           0.019313441102350        5.561339701277586        8.496739403808760       -0.263141213222622       -0.567635811049481       -0.851615824700938
S          -0.023578986376489        5.469843245524219       11.618740149333037        0.191857346240581        0.465995429705544       -0.598587793169467
Mo         -1.594706206991522        6.435059187975031        9.992446229085324       -0.004347994497866       -0.004469607731707        1.796958171681045
S          -1.544703263331390        8.275466153799405        8.500323328198292       -0.635885774946263       -0.070103987214393       -0.885773202563630
S          -1.644709150651655        8.272547287544013       11.622320251549384        0.494434928694246        0.048297937344308       -0.626479132719374
Mo         -3.187277093230519        9.193474435245838        9.995633921521375        0.031112933249763       -0.031404753588896        0.262865333730209
S          -3.155618032741549       10.988220446147912        8.446387368331090       -0.379862406894176        0.494548571504727       -0.234961909990046
S          -3.218939975892674       11.076620941621663       11.568380469508998        0.415233345990971       -0.484176222499175       -0.044301927026419
Mo          4.775582434195377        0.918231241548875        9.993585236694368        0.001386339443705       -0.056881569081713        0.733128025258299
S           4.819927287484408        2.727797091945805        8.472012491419129       -0.583858450800965        0.356124172135471       -0.451548651700661
S           4.731236306848619        2.786557908429842       11.594010688827948        0.531948111901751       -0.305095979124861       -0.253337592490340
Mo          3.183011547956380        3.676645214761953        9.999986102721033        0.007754193487147        0.003312353681982       -0.004697664683963
S           3.186326646165254        5.462513591413669        8.406013752980975       -0.019815500913637        0.591106650959994        0.295966244832109
S           3.179690079458866        5.568668081330407       11.528010676332068        0.035483296355122       -0.662884684190329        0.497098849869362
Mo          1.590438113601927        6.435059187975031       10.006392064978611        0.066406739217272        0.093890815844548       -0.181051251938009
S           1.549616029931473        8.247012622554680        8.370947862126698        0.448079974876658        0.291793085427292        0.679520757514787
S           1.631258923214653        8.300996996615552       11.492939689246878       -0.576403276745018       -0.374913545319170        0.952974413012550
Mo         -0.002132772637069        9.193475709303566       10.006801037509375        0.118366186208798        0.013727125908643       -0.220951191276061
S          -0.048807877511046       11.056831002928952        8.399703345053016        0.564621962577836       -0.334984809612851        0.413951907603095
S           0.044539784121451       11.008010384840624       11.521700268404109       -0.633347323661453        0.357174211135488        0.643199281154755
Mo          7.960726754788827        0.918231241548875       10.007541265049481        0.064519805764499       -0.019889548717752       -1.010453249625369
S           7.910365800907060        2.761450052779468        8.381225685820390        0.547094487389260       -0.021303398977569        0.533978255864565
S           8.011087708670594        2.752901125422995       11.503220061056025       -0.664897601754269        0.017912369503715        0.773820636054983
Mo          6.368155868549830        3.676646488819681       10.003661759266999        0.049886879807605       -0.023714837709488       -0.157831094697676
S           6.340905047800561        5.562705491162256        8.438950693371368        0.325312572310786       -0.544616971276586       -0.097307813471929
S           6.395406689299100        5.468477455639548       11.560950164837918       -0.309441916739279        0.550616386072470        0.086320970536395
Mo          4.775582434195377        6.435060462032760        9.996341023560547       -0.000667715789188        0.054419736705327        0.138856602003690
S           4.797001892722504        8.319771511298860        8.496716470769652       -0.309409520824979       -0.610143107267840       -0.823426494161555
S           4.754165523783707        8.228240655986829       11.618710846005287        0.255700180240378        0.496293579999613       -0.574669323998663
Mo          3.183010273898652        9.193474435245838        9.992446229085324        0.120976628414276        0.064979776325476        0.263040940154550
S           3.233009395385600       11.033910704397959        8.500342439064214       -0.733550457696356        0.040630904293255       -0.925859032743262
S           3.133011152411704       11.030930683371613       11.622340636473036        0.574355906383330       -0.053760505560360       -0.648476986970951
Mo         11.145871075382276        0.918231241548875        9.993196649087258        0.141797945333806        0.066090493387198        1.032277040115190
S          11.189640054578144        2.779080463622817        8.507045256772473       -0.546446826213687       -0.282148101830909       -1.071722665321746
S          11.102111014590507        2.735274536752831       11.629039632008107        0.386007603304411        0.188324648919271       -0.770665119735882
Mo          9.553298915085552        3.676646488819681        9.993582688578913        0.116364838614251        0.010348180625043        0.314637347217570
S           9.597659057067320        5.486239094428905        8.472049439093247       -0.482219097898752        0.362560160443116       -0.629624621731668
S           9.508937499046054        5.544943852372898       11.594050184617524        0.438906274700213       -0.318622044676497       -0.400046089944940
Mo          7.960726754788827        6.435059187975031        9.999981006490120       -0.005303931080153       -0.000761046875624        0.028056918667442
S           7.964073704440906        8.220927564626747        8.406050700655095        0.026762367647588        0.548700142030569        0.282938973516524
S           7.957374708905835        8.327083328601214       11.528050172121644        0.000364068370231       -0.596003319117516        0.488502619720840
Mo          6.368155868549830        9.193474435245838       10.006392064978611        0.060691431447592        0.096431324012806       -0.217932714816659
S           6.327350347629843       11.005401114613193        8.370950410242154        0.449158553134511        0.245420648100400        0.646837907973618
S           6.408956293238904       11.059440273156380       11.492949881708704       -0.610841676308742       -0.319081758127043        0.935371347357273
