# total energy = -9680.582643923097 eV 

 CRYSTAL
 PRIMVEC
        8.536211121343900        0.000000000000000        0.000000000000000
       -4.268105560671950        7.392572236361851        0.000000000000000
        0.000000000000000        0.000000000000000       20.000043889919510
 PRIMCOORD
12 1
Mo          2.212194110561869        1.205855059739964        9.961526193665829        0.528494090372313        0.466730251317211       -0.137027775508313
Mo          0.080231848329511        4.865133288225415       10.073525551683424        0.201104837110709        0.189182369316934        0.207255175729564
Mo          6.285767955989513        1.304139287348894        9.820016300180640       -0.451499286497917       -0.172682821631313       -0.512980818299831
Mo          4.221876002102087        4.990842654924998       10.064311565399045       -0.162010424752836       -0.726162389462889        0.805576088271700
S           2.192019629197685        3.652673761940867        8.780941733329493       -0.175685871464857       -0.146504094661991        0.224229092160296
S           2.206357049397094        3.656023371184883       11.351781339670179        0.004992827458699        0.319822493278622       -0.497144101305210
S           0.053535701668620        7.383546900343254        8.756674138732624        0.194636452888765        0.499278117882129        0.449855065291966
S           0.040022879463533        7.397637624041256       11.304238058208741       -0.199490183604317       -0.055149416108375       -0.375917304441615
S           6.334686421062599        3.762291517055605        8.775785008191090        0.029264309251203       -0.535075860294308        0.514046798146567
S           6.349493332873681        3.692099960247019       11.287385870212983       -0.020195253020157        0.270195809227143       -0.626207624104287
S           4.227254668729647        7.426503675569193        8.677949785287144       -0.182806287739702        0.417831446895763        0.866252864424728
S           4.213750382735681        7.372942365267209       11.079531690271597        0.233195047108529       -0.527466162869358       -0.917937717475995
