# total energy = -9665.450514427765 eV 

 CRYSTAL
 PRIMVEC
        8.536211121343900        0.000000000000000        0.000000000000000
       -4.268105560671950        7.392572236361851        0.000000000000000
        0.000000000000000        0.000000000000000       20.000043889919510
 PRIMCOORD
12 1
Mo          2.081657516473166        1.260064268466058       10.036436567982296       -0.033078285383977       -0.085338037358858        0.064597967335509
Mo          0.067990067960392        4.877875290566245       10.052459889878170       -0.009090653507246       -0.169247312052903        0.169280993519358
Mo          6.377923184013317        1.197009837776027       10.187862977927152        0.201501815616103        0.214960518234829        0.582448200087181
Mo          4.232556509457114        4.977982852870693        9.833772404402687        0.063055818970646        0.091600219015177       -0.723228759445702
S           2.213054560642901        3.660334157801161        7.712387361370785        0.157288077467501        0.201687449347252        3.454699272534202
S           2.168154090144632        3.730863748570153       11.986346202008642       -0.407770201511664       -0.046894628612160       -3.640735638617981
S           0.012102640127841        7.460856803605930        8.010566605671562       -0.045233438117766       -0.049730813776016        3.442365170940469
S          -0.118124943118269        7.460749247345801       12.292983124288444        0.240365342806979        0.103432698158119       -3.319644305362599
S           6.363682222999580        3.706083981306004        7.877612556593293       -0.257861450522979        0.301813707363300        3.264863585612213
S           6.374757956929523        3.624796203660782       12.023590544752176        0.273803582794292       -0.453455125546186       -3.328237707296381
S           4.302760870582381        7.357427801554166        8.082514914728920        0.106284567058262       -0.467576658855912        3.486037691631912
S           4.203384007949921        7.457573776808660       12.128308514683262       -0.289264918559720        0.358747984083358       -3.452446470938182
