# total energy = -38803.01482907904 eV 

 CRYSTAL
 PRIMVEC
       12.740577282373799        0.000000000000000        0.000000000000000
       -6.370288641186900       11.033658440967770        0.000000000000000
        0.000000000000000        0.000000000000000       19.999979849788435
 PRIMCOORD
48 1
Mo          1.602560772886106        0.875169364392180        9.999991198951946       -0.476788668486569        0.499298686716605        0.000000000000000
S           1.595869421697403        2.768870164988722        8.492899393815852       -0.000205431234332       -0.285478196132627       -0.536808270378077
S           1.595869421697403        2.768870164988722       11.507090648434410       -0.000205431234332       -0.285478196132627        0.536808270378077
Mo         -0.063476104136243        3.619883394853522        9.999991198951946        2.145737470135448        1.354094967448447        0.000000000000000
S           0.013743260714497        5.524008535782502        8.530487918972039       -0.212160071420876       -0.076544089288932       -0.897364512122336
S           0.013743260714497        5.524008535782502       11.469500849220495       -0.212160071420876       -0.076544089288932        0.897364512122336
Mo         -1.671979082266848        6.417835201546991        9.999991198951946        1.436584735453194        0.453189016250148        0.000000000000000
S          -1.583274086996048        8.271251570834396        8.482262285842797       -0.167538299018351        0.134450500548429       -0.405714860726617
S          -1.583274086996048        8.271251570834396       11.517720112061093       -0.167538299018351        0.134450500548429        0.405714860726617
Mo         -3.208006012468941        9.231942060234509        9.999991198951946        0.006928097672491       -0.764734353425063        0.000000000000000
S          -3.191013904547439       11.021080943074610        8.393455365953740       -0.044020648214955        0.147654920950942        0.334086465767097
S          -3.191013904547439       11.021080943074610       11.606530854123337       -0.044020648214955        0.147654920950942       -0.334086465767097
Mo          4.726221615630276        0.936520340237723        9.999991198951946        0.587360294870561       -0.594033596105976        0.000000000000000
S           4.778260503540132        2.748210044867625        8.427786125498825       -0.087156579436996        0.182277925804091        0.068326325694776
S           4.778260503540132        2.748210044867625       11.572200094578253       -0.087156579436996        0.182277925804091       -0.068326325694776
Mo          3.211114713325840        3.733687327370597        9.999991198951946       -0.389630032166125       -0.638588005575592        0.000000000000000
S           3.170836652305344        5.504097561605608        8.355916529048955        0.111131098681748        0.151441900488465        0.528931178104935
S           3.170836652305344        5.504097561605608       11.644069691028124        0.111131098681748        0.151441900488465       -0.528931178104935
Mo          1.669648830681902        6.477354082379327        9.999991198951946       -0.875028557654055       -0.475998311021816        0.000000000000000
S           1.574830906431019        8.270764880782210        8.361965755142625        0.151393049506584       -0.011108970390236        0.484069521670329
S           1.574829632373291        8.270766154839936       11.638020464934453        0.151393049506584       -0.011108970390236       -0.484069521670329
Mo          0.053890093788985        9.181353050019387        9.999991198951946       -0.778475877517839       -0.027939676310927        0.000000000000000
S          -0.006537190203586       11.040470827640656        8.440261698773725        0.215154379499769        0.095448647945699        0.365337210207852
S          -0.006537190203586       11.040470827640656       11.559720699130169        0.215154379499769        0.095448647945699       -0.365337210207852
Mo          8.034964824555491        0.929295158860888        9.999991198951946       -2.050139698139796        0.342389332913900        0.000000000000000
S           7.950609462368893        2.761172308194712        8.404698925405436        0.167092726641507       -0.109912909459887        0.157760903550026
S           7.950609462368893        2.761172308194712       11.595289842787098        0.167092726641507       -0.109912909459887       -0.157760903550026
Mo          6.380328216085410        3.633608818759823        9.999991198951946       -0.075709508830055        0.428834230678015        0.000000000000000
S           6.373575710125752        5.527282864144072        8.492852253679906       -0.051243137330888       -0.172489217476804       -0.486106093393917
S           6.373576984183480        5.527282864144072       11.507130144223986       -0.051243137330888       -0.172489217476804        0.486106093393917
Mo          4.714273502254867        6.378287175604774        9.999991198951946        0.777029888454153        0.670628850370668        0.000000000000000
S           4.791458467546943        8.282427605226493        8.530491741145223       -0.127130309468733       -0.116125211692602       -0.798966807533593
S           4.791458467546943        8.282427605226493       11.469490656758667       -0.127130309468733       -0.116125211692602        0.798966807533593
Mo          3.105722109930588        9.176214775201405        9.999991198951946        0.910323392063288        0.400431241370509        0.000000000000000
S           3.194448764182768       11.029670640278386        8.482313248151927       -0.431236156323989       -0.479360287016972       -1.384048075544176
S           3.194448764182768       11.029670640278386       11.517670423809694       -0.431236156323989       -0.479360287016972        1.384048075544176
Mo         11.065350626957674        0.880585383794917        9.999991198951946        2.802802202610699        0.304821642295033        0.000000000000000
S          11.160890941940467        2.759154200753184        8.510203645880772       -1.061469615556156       -0.372126468247627       -1.429735056462145
S          11.160890941940467        2.759154200753184       11.489780026080849       -1.061469615556156       -0.372126468247627        1.429735056462145
Mo          9.503898600730876        3.694898639834410        9.999991198951946        0.434194983163409       -0.213883482639562        0.000000000000000
S           9.555987176892133        5.506629114311616        8.427843458096595       -0.410578361638546        0.118691173793524       -0.259057271137347
S           9.555987176892133        5.506629114311616       11.572140213865026       -0.410578361638546        0.118691173793524        0.259057271137347
Mo          7.988782780022342        6.492093656237306        9.999991198951946       -0.327020556903615       -0.632046087770394        0.000000000000000
S           7.948559503484160        8.262510260760958        8.355939462088061        0.321173351482855        0.374864694337289        0.804475655627217
S           7.948559503484160        8.262510260760958       11.644050580162201        0.321173351482855        0.374864694337289       -0.804475655627217
Mo          6.447355119110250        9.235794810804698        9.999991198951946       -0.947511587686067       -0.531174980835872        0.000000000000000
S           6.352543565148009       11.029171209648917        8.361935177757148        0.036465458201367        0.130670462992541        0.975861098023935
S           6.352543565148009       11.029171209648917       11.638049768262203        0.036465458201367        0.130670462992541       -0.975861098023935
