# total energy = -9695.601170873686 eV 

 CRYSTAL
 PRIMVEC
        5.828834480010100        0.000000000000000        0.000000000000000
       -2.914417240005050        5.047916380550747        0.000000000000000
        0.000000000000000        0.000000000000000       20.000054246341612
 PRIMCOORD
12 1
Mo          1.487041177754665        0.842789428814316        9.963693666323111       -1.848303896073884        0.241219720769040       -0.004459323314469
Mo          0.039639571764757        3.337015900174054        9.888650336810223       -0.049871453181748        3.270134863667635        5.189912631332036
Mo          4.352603458682062        0.868030613646552        9.968137569730672        1.878369875648802       -2.725640019845753        0.027945332740408
Mo          2.968385252688567        3.349422574364756        9.926505119457200       -4.579069155250277        2.700951504934241        1.579473857455970
S           1.376624983316385        2.571055755757303        8.388732097922320        2.579403577142385       -1.479047294456567       -3.626891527463254
S           1.443999315303926        2.503999095248922       11.553427832830042        0.670071177845929        0.491821658274028        1.307493444727574
S          -0.041025085720655        5.072432458373669        8.433838533545877        1.057913006964767        0.005228340613453       -3.571660864458698
S          -0.009976633095985        5.087670197471311       11.593668357429689        0.440432482218357       -0.829951956899172        0.842029462282813
S           4.372647654691921        2.565960771538326        8.542242031438208        0.406505475301801       -1.704004009136463       -7.472758866761548
S           4.381665444515944        2.572852785427490       11.434477641829581        0.628844805794584       -0.510692021243477        4.263800601924715
S           2.964410570456649        5.023512799233288        8.257378147148396       -0.661520970464548        0.609425512055047        0.077410808551679
S           2.946505556700953        5.048793037256540       11.528626142117600       -0.522775183056599       -0.069446555842443        1.387704442982775
