# total energy = -9689.115861554359 eV 

 CRYSTAL
 PRIMVEC
        7.803618137828300        0.000000000000000        0.000000000000000
       -3.901809068914150        6.758128397812754        0.000000000000000
        0.000000000000000        0.000000000000000       20.000017783330357
 PRIMCOORD
12 1
Mo          1.901782319003074        1.098047108173820        9.860203951278729        0.572255571272866        0.175714667833124       -0.294099365992951
Mo         -0.058298490022274        4.493759546015440       10.150714706228358        0.338834009874666        0.223320721007735       -0.570121297585515
Mo          5.890124929085788        1.088974621726781       10.016792913556019       -0.533508515107211        0.159989536765537       -0.392470845317737
Mo          3.858821277678295        4.463952846176191       10.157571745486070        0.176846982171046        0.149306855469822       -0.492002921127850
S           1.947439728003879        3.429964858933990        8.561656141204246       -0.192820224804504       -0.320261380784261        0.878683382430069
S           2.056536650656160        3.317282173747377       11.390419333734549       -0.409233159863794       -0.045396189020560       -0.324527871275514
S           0.054997559549973        6.782439789759344        8.616056723966674       -0.316024715102998       -0.008166598618397        0.412770742283292
S           0.013567370494428        6.742180923786288       11.425318674770544       -0.054669133823352       -0.213366176452482       -0.478486882883021
S           5.857979484890631        3.407344511037866        8.649523320712564        0.047730237512762       -0.188445747932250        0.446581535285057
S           5.760902475256048        3.404227745953618       11.378759167513007        0.219040346553210        0.007441804313537        0.080781526301488
S           3.904233653069573        6.741554293249820        8.575842338617003        0.130698230919084        0.186878916966016       -0.078666793006890
S           3.859963727373673        6.744571952383718       11.182396724310832        0.020850113287797       -0.127016409547820        0.811558790889573
