# total energy = -9627.118886567285 eV 

 CRYSTAL
 PRIMVEC
        4.554734417592800        0.000000000000000        0.000000000000000
       -2.277367208796400        3.944513873995805        0.000000000000000
        0.000000000000000        0.000000000000000       19.999888929728577
 PRIMCOORD
12 1
Mo          1.107440859134164        0.671542754954814        9.964968659271594        2.056455615876185       -3.119394874655675        5.145131964683181
Mo          0.017327120671407        2.595474870728940       10.007517621780421       -3.532913294072182        1.771651049072658        3.919967079720146
Mo          3.432499781070295        0.622095191697102       10.144083134769989       -1.565065388905299        2.372534067059252       -0.808790225769058
Mo          2.252975239569865        2.614044522949466        9.800030794647958        5.637765577698161        1.120177954249798       13.637583344406437
S           1.172331704908167        1.974157627670364        8.432076434818272       -4.924217025977883       -1.705035279075020      -21.895606575394307
S           1.177222123252336        1.948514017425875       11.632686032693524        0.818165500523371        1.280154121272925       12.890468254593801
S          -0.038782652618919        3.932868329036904        8.463661696110510        2.527254125542384        0.151827566134897      -15.942966337550805
S          -0.040715681905746        3.960144811570100       11.611587136450909       -1.301672978791634       -1.512025049662041       14.282023183390544
S           3.425257297872880        1.986164363068580        8.387893689073854        3.117204550894376       -3.311427570210167      -16.222667776520755
S           3.437934945650808        1.968387234636716       11.707849626472965       -1.285763756655483        2.039658077201088       11.197440546865201
S           2.282609252637608        3.975381309143831        8.421102713185965       -2.334628790444542        2.965708400104980      -18.370372398563433
S           2.315722627326949        3.933756502248334       11.709757604720496        0.787416121422977       -2.053828204382264       12.167788683028617
