# total energy = -9682.571558336387 eV 

 CRYSTAL
 PRIMVEC
        8.376928769394899        0.000000000000000        0.000000000000000
       -4.188464384697450        7.254629737515218        0.000000000000000
        0.000000000000000        0.000000000000000       19.999984452360476
 PRIMCOORD
12 1
Mo          2.096282864511473        1.267658012964853       10.024593590590198       -0.749419827715709        0.168635132116801        0.049993323526020
Mo          0.040891977787801        4.838006415319069       10.035915847514913       -0.507865863386429       -0.988356150747445        0.293121317913601
Mo          6.300214410488732        1.273806678681589        9.813086191477501        0.660852226233636        0.476754472799252       -0.261629146778181
Mo          4.228530397308589        4.847431297877515        9.829380155626851        0.142717372234898       -0.024822212335608       -0.480460719661456
S           2.047237621952419        3.608444161318793        9.008588570172490        0.440334523144164        0.165257729495787       -0.270622869652958
S           2.022428509708980        3.601112673259819       11.278324959475933       -0.138329525620234       -0.057905897038634        0.230539867688066
S           0.028892865018520        7.291990002133842        9.008312969215979        0.080241851506915        0.320785114732114       -0.082244741764048
S           0.065561195320792        7.234965734921940       11.133693095807944       -0.255632817307468       -0.229384413411358        0.215700482055115
S           6.339773618909323        3.628798422842669        8.705580815804570       -0.268524848536372        0.035790286209681       -0.106474057445876
S           6.316822509466935        3.569982330566993       11.134761154226041        0.197297545849140        0.222646063236911        0.322499012864855
S           4.099162973244193        7.258133806819456        8.773597288947670        0.029039851844980       -0.233640105264511        0.097764441597303
S           4.075602861080269        7.324259607139305       11.195721740266682        0.369290025973341        0.144239465986147       -0.008186653232011
