# total energy = -38802.611140398236 eV 

 CRYSTAL
 PRIMVEC
       12.740577282373799        0.000000000000000        0.000000000000000
       -6.370288641186900       11.033658440967770        0.000000000000000
        0.000000000000000        0.000000000000000       19.999979849788435
 PRIMCOORD
48 1
Mo          1.504049355281063        0.868354429603838        9.999991198951946        2.696949323966009        1.557084424018050        0.000000000000000
S           1.581597427025688        2.752072987899641        8.507261846586271        0.081110627653109        0.046838064317351       -0.729869921877248
S           1.581597427025688        2.752072987899641       11.492720551317621        0.081110627653109        0.046838064317351        0.729869921877248
Mo         -0.088522805015661        3.626768402816916        9.999991198951946        2.697025171543140        1.556613654818973        0.000000000000000
S          -0.010974733271037        5.510486961112719        8.507261846586271        0.081100086125440        0.046825465906234       -0.729876349638021
S          -0.010974733271037        5.510486961112719       11.492720551317621        0.081100086125440        0.046825465906234        0.729876349638021
Mo         -1.681094965312386        6.385183650087723        9.999991198951946        2.696599396669480        1.556882335219320        0.000000000000000
S          -1.603546893567762        8.268902208383524        8.507261846586271        0.081102143008888        0.046822123470631       -0.729876349638021
S          -1.603546893567762        8.268900934325798       11.492720551317621        0.081102143008888        0.046822123470631        0.729876349638021
Mo         -3.273667125609111        9.143598897358530        9.999991198951946        2.696579599166297        1.557385500332698        0.000000000000000
S          -3.196119053864487       11.027321277827516        8.507261846586271        0.081118083855607        0.046824951685372       -0.729869921877248
S          -3.196119053864487       11.027321277827516       11.492720551317621        0.081118083855607        0.046824951685372        0.729869921877248
Mo          4.842473013043296        0.956850479407207        9.999991198951946       -0.870522183130722       -0.502209433905438        0.000000000000000
S           4.813897172256659        2.779297053436617        8.404690007001337       -0.292898146059533       -0.169104872874154        0.194675790784701
S           4.813897172256659        2.779297053436617       11.595300035248925       -0.292898146059533       -0.169104872874154       -0.194675790784701
Mo          3.249900852746571        3.715264452620285        9.999991198951946       -0.870187168239189       -0.502789732148101        0.000000000000000
S           3.221325011959935        5.537712300707424        8.404690007001337       -0.292899174501257       -0.169111300634928        0.194862967178435
S           3.221325011959935        5.537712300707424       11.595300035248925       -0.292899174501257       -0.169111300634928       -0.194862967178435
Mo          1.657328692449846        6.473679699891091        9.999991198951946       -0.870345805375087       -0.502916230480131        0.000000000000000
S           1.628752851663210        8.296127547978230        8.404690007001337       -0.292909716028926       -0.169111557745359        0.194866309614038
S           1.628752851663210        8.296127547978230       11.595300035248925       -0.292909716028926       -0.169111557745359       -0.194866309614038
Mo          0.064756532153121        9.232093673104171        9.999991198951946       -0.870711159297473       -0.502283481709552        0.000000000000000
S           0.036180691366485       11.054540247133581        8.404690007001337       -0.292904316709876       -0.169102301769845        0.194862967178435
S           0.036180691366485       11.054540247133581       11.595300035248925       -0.292904316709876       -0.169102301769845       -0.194862967178435
Mo          7.949999188717068        0.912036772874185        9.999991198951946        0.088516950727175        0.050556652480241        0.000000000000000
S           7.913936984719309        2.730163017147142        8.420531640794239        0.367785672841828        0.212336449176511        0.033606133098726
S           7.913936984719309        2.730164291204871       11.579450757109651        0.367785672841828        0.212336449176511       -0.033606133098726
Mo          6.357427028420343        3.670450746087263        9.999991198951946        0.088464243088829        0.051074729998613        0.000000000000000
S           6.321366098480312        5.488576990360221        8.420531640794239        0.367781559074933        0.212343391158147        0.033606133098726
S           6.321366098480312        5.488576990360221       11.579450757109651        0.367781559074933        0.212343391158147       -0.033606133098726
Mo          4.764854868123618        6.428865993358070        9.999991198951946        0.088041810650772        0.051379662969725        0.000000000000000
S           4.728793938183587        8.246992237631027        8.420531640794239        0.367799042584238        0.212361131777883        0.033618217288980
S           4.728792664125860        8.246992237631027       11.579450757109651        0.367799042584238        0.212361131777883       -0.033618217288980
Mo          3.172282707826894        9.187279966571149        9.999991198951946        0.088159567228149        0.050898866463841        0.000000000000000
S           3.136221777886862       11.005411307075018        8.420531640794239        0.367809584111907        0.212342876937285        0.033618217288980
S           3.136221777886862       11.005411307075018       11.579450757109651        0.367809584111907        0.212342876937285       -0.033618217288980
Mo         11.094560948492973        0.888605577194171        9.999991198951946        0.468449548769001        0.270905434016576        0.000000000000000
S          11.175490369448340        2.774277265987362        8.500102916211306       -1.347658207809509       -0.778050873975472       -1.554565256015561
S          11.175490369448340        2.774277265987362       11.499880755750315       -1.347658207809509       -0.778050873975472        1.554565256015561
Mo          9.501986240080791        3.647020824464978        9.999991198951946        0.468453662535897        0.270905434016576        0.000000000000000
S           9.582916935093886        5.532691239200441        8.500102916211306       -1.347635582091586       -0.778057815957108       -1.554569112672026
S           9.582916935093886        5.532689965142712       11.499880755750315       -1.347635582091586       -0.778057815957108        1.554569112672026
Mo          7.909412805726338        6.405434797678057        9.999991198951946        0.468837785519742        0.270240032221267        0.000000000000000
S           7.990344774797161        8.291106486471246        8.500102916211306       -1.347640724300205       -0.778080698785462       -1.554565256015561
S           7.990344774797161        8.291105212413518       11.499880755750315       -1.347640724300205       -0.778080698785462        1.554565256015561
Mo          6.316841919487342        9.163848770891134        9.999991198951946        0.468835728636295        0.270236432675233        0.000000000000000
S           6.397772614500436       11.049520459684324        8.500102916211306       -1.347634296539431       -0.778057044625815       -1.554550343610566
S           6.397772614500436       11.049520459684324       11.499880755750315       -1.347634296539431       -0.778057044625815        1.554550343610566
