# total energy = -9698.925718161981 eV 

 CRYSTAL
 PRIMVEC
        6.656943956970200        0.000000000000000        0.000000000000000
       -3.328471978485100        5.765079890335118        0.000000000000000
        0.000000000000000        0.000000000000000       19.999962657666302
 PRIMCOORD
12 1
Mo          1.700502354225728        0.951277291451042        9.863520634659219       -0.582022682323952        0.585723529867107        2.125592867870190
Mo          0.012046405784533        3.874495824056458       10.112311932551858        0.008493643086571       -0.920942309972126       -1.742438161907646
Mo          5.034567497023475        0.921122001020362       10.065283951967841       -0.858432336446395        0.610609505589591       -0.893091850980740
Mo          3.413722134186852        3.790308782304634        9.905153162166110       -1.568423508243991        0.803169020417108        1.003278583049593
S           1.574284034023990        2.921738693963782        8.282698815975088        0.635940025247195       -0.185529344313937        2.186422367619204
S           1.725666268077471        2.879223455688196       11.615771408428850        0.014813160368993       -0.127495920501550       -2.016059453406391
S           0.012248111186429        5.709438489965177        8.433563139788715        0.354240324007870        0.162812095076551        0.908216629192049
S          -0.019532139264146        5.777789327737765       11.606594811184168       -0.081883501608558        0.161967487310867       -1.090596627837229
S           4.956793089385400        2.877766916350411        8.310954880294844        0.664644090869348       -0.260039690094022        1.924765452914480
S           4.982697921099554        2.857105093696767       11.574626169219608        0.125103250831090        0.218427652396246       -0.902713437527907
S           3.315032274330373        5.793775978650429        8.442329669285652        0.166842815302620       -0.461234001634704        0.532762894857444
S           3.232611319810333        5.814533661297054       11.692912075002221        1.120684461798778       -0.587468281251561       -2.036139263843049
