# total energy = -9676.291852883951 eV 

 CRYSTAL
 PRIMVEC
        8.185842864781000        0.000000000000000        0.000000000000000
       -4.092921432390500        7.089144566971965        0.000000000000000
        0.000000000000000        0.000000000000000       20.000036021847581
 PRIMCOORD
12 1
Mo          2.148750190049267        1.120938215700224        9.946099501142053       -0.010765470854482       -0.209751975124560        0.569628673999807
Mo         -0.050279902628344        4.724235735898145        9.878940390526529       -0.041129441418875        0.354506947524769        0.690343821105803
Mo          6.105180878512408        1.163484952574210        9.898051059278648       -0.114132348742276       -0.115100369514819        0.349872532006821
Mo          4.004085391284750        4.778737077691858        9.970682405849276        0.201875911293141        0.002354360216247        0.664355098744956
S           2.109486794748345        3.488113706663301        8.280304217103428       -0.019828099324754        0.199262640872923        2.899021667628399
S           2.009984600389786        3.535328011138786       12.020268476850299        0.179648714537154        0.094746993579625       -3.456607289042313
S          -0.061617294996066        7.120387473433976        8.301694643093384        0.024583099634820       -0.055160986077768        2.719923169413487
S          -0.042248772193708        7.045064621729407       11.817704065071288       -0.097220653035835        0.104408946464452       -3.475481251557796
S           6.101363001400274        3.537471883385072        8.077669407075778        0.193659947472001       -0.023718437255521        3.231581411656490
S           6.061763167957610        3.575924061658094       11.967919193145738       -0.067724687286343        0.038006835234937       -3.566894037068808
S           4.129359893318786        7.147906639976796        8.305161347546621       -0.197232754020540       -0.174996301289038        2.757881153666543
S           4.163304127926174        7.045893847611608       11.905387539501676       -0.051734218254011       -0.214558654631248       -3.383624693442957
