# total energy = -9688.050107904766 eV 

 CRYSTAL
 PRIMVEC
        7.803618137828300        0.000000000000000        0.000000000000000
       -3.901809068914150        6.758128397812754        0.000000000000000
        0.000000000000000        0.000000000000000       20.000017783330357
 PRIMCOORD
12 1
Mo          1.963739145208361        1.157716693902910       10.152355807122744        0.892792060218247        0.392489357268766       -0.111882889581858
Mo         -0.093759691564193        4.565388956902566        9.855943175775474       -0.141801030658977       -0.583257069502963       -0.162144893508225
Mo          5.850769722093092        1.107886690283808        9.948864758751666       -1.410095419083280        1.641032265276739        0.054738039418848
Mo          4.014320074501732        4.437161464385399        9.812818821222208       -0.164877720278837       -1.153426446739067        0.195987568203429
S           1.955409563208043        3.373053852216622        8.746617498307051        0.057853446510720        0.183794620236290       -0.978558957775937
S           1.888033904567848        3.428036584892132       11.157238639796287        0.153601370998049       -0.185677954143029        1.043495282438582
S           0.061010247325169        6.778433412207383        8.793606984923985       -0.169395921881995       -0.090356061639790       -1.641743689839189
S          -0.072764837326180        6.804593481290825       11.184560667620453        0.064141853430997        0.158899902759153        1.639427896187585
S           5.790549200923471        3.396656675636297        8.684028579032599        0.390380280403649       -0.227568699547959       -1.294516567056456
S           5.951338850844355        3.327851394153251       11.225033352730485       -0.212316137452466        0.016737117723823        1.110713976396807
S           3.919328191633575        6.718098958212949        8.943572236125886        0.155850315937606       -0.077059338592565       -2.801285508178501
S           3.870750668725594        6.747499089547218       10.956144862917149        0.383866901856287       -0.075607950209828        2.945770000405346
