# total energy = -9341.613965235674 eV 

 CRYSTAL
 PRIMVEC
        4.363648512978900        0.000000000000000        0.000000000000000
       -2.181824256489450        3.779028703452552        0.000000000000000
        0.000000000000000        0.000000000000000       19.999988775209427
 PRIMCOORD
12 1
Mo          1.036929868855514        0.658952380120687        9.893290090516839        1.386638463136039       31.515215429126044       21.020705544514001
Mo         -0.007275511165690        2.534136073765489        9.835463893152545       25.010231280224488      -31.031633903053667       23.519175643090207
Mo          3.234251186673958        0.637386356439843        9.986674786883697       23.919971467051809       -4.417256705529275       -2.500489701011348
Mo          2.145958120266723        2.515152893639477       10.049425361594887      -25.284826506035689       -9.953556222755687       -0.499613389884093
S           1.099541243179141        1.913365618133367        8.869548476562102       10.601293503016782        2.615987820362853      -78.707502072754309
S           1.082243304108841        1.851087626556132       11.182987354040616       -8.512306732753689       -0.559445044050574       58.590359715742522
S          -0.018833506982017        3.795488822008359        9.205822140093538       -0.111221087332582       15.545705010683530     -111.151544874548989
S           0.046505584027073        3.769876823426281       10.926669258577343      -15.810442622571948       -8.585844429773475       87.432402879336337
S           3.239440437485592        1.871823684289808        9.062472795523369      -13.859715701002301        0.459323156911852      -94.730605617866630
S           3.295917831094524        1.883340225445262       10.830178517198949       13.058067488784285        9.288992864561658       96.382984166461384
S           2.192436213308163        3.763242768591999        9.035963194442173      -12.882764454751118      -10.191892192931144      -90.945818975208397
S           2.197066044380434        3.802006367427345       10.902060026423548        2.485075159344353        5.314404216447886       91.589946425018908
