# total energy = -9680.968598800986 eV 

 CRYSTAL
 PRIMVEC
        7.548819292434800        0.000000000000000        0.000000000000000
       -3.774409646217400        6.537466227730848        0.000000000000000
        0.000000000000000        0.000000000000000       20.000053200316945
 PRIMCOORD
12 1
Mo          1.900665122789040        1.085079363205446       10.144505717242170        0.176275939903897        0.171308823488294       -0.387382629889154
Mo          0.085183896423551        4.301536148588830        9.876251629748136        0.116541730590748        0.240471015194101       -0.138360121761518
Mo          5.673027529214332        1.045136295683386       10.145762595654363       -0.270927031292776        0.026235034153701       -0.285246282523906
Mo          3.836835362238119        4.313079048168891       10.044994161801579       -0.406223425159044       -0.066118261313741       -0.204176792539750
S           1.854408977692717        3.319045994449502        8.159310425780305       -0.092592665278660        0.082416748642356        3.763339004728904
S           1.867691125237756        3.258808681141660       11.821996791587740        0.230004563770819       -0.229992993801426       -3.568741118404782
S          -0.014633386198385        6.564080345028255        8.059151936526350        0.135141613386834       -0.358460791731983        3.971171650486391
S          -0.040935737259015        6.493448307554731       11.829866435700103        0.186241283097249        0.355172349320079       -3.484372387370622
S           5.629149262195125        3.209816089051829        7.858090644436208        0.226583195266112        0.219888296754497        4.161548297755107
S           5.676549053414253        3.309323115200846       12.027835731408064       -0.240519609065551       -0.363134802256298       -4.033570295195518
S           3.855328459740726        6.522171564962446        7.808768923825227       -0.032631170344547       -0.135455802333460        3.992267304235749
S           3.781844478338519        6.550277328952039       11.922523663223165       -0.027894939095941        0.057670898104742       -3.786476886631331
