# total energy = -9689.335768819514 eV 

 CRYSTAL
 PRIMVEC
        6.656943956970200        0.000000000000000        0.000000000000000
       -3.328471978485100        5.765079890335118        0.000000000000000
        0.000000000000000        0.000000000000000       19.999962657666302
 PRIMCOORD
12 1
Mo          1.608597917344589        0.974776969313542       10.133444401143260        0.459725020515434       -0.244186775142251       -0.589689972485436
Mo          0.051462836648150        3.794002054811962       10.113180663738243       -0.274960579733585        0.235106663162673       -0.225585349683579
Mo          5.048290121296373        0.953894801814922       10.090362656936936       -0.300675222375035       -0.021716061219250       -0.101424922802798
Mo          3.365462618970796        3.851022773969786       10.053224232295396       -0.354719834961599       -0.073095981299406       -0.126749528920490
S           1.695100909899042        2.830010666097503        8.125429180686062       -0.128515620470714        0.264856139797087        4.287217705755158
S           1.660716462972500        2.883820741184880       11.841728057160291        0.049289612276499       -0.054774806210475       -3.314819628125745
S          -0.019253213312349        5.810186676893152        7.915258143159787        0.099830838130882       -0.194169540346152        4.358003292722010
S           0.091718708144740        5.708389355597559       12.010864360747009       -0.220819807845844        0.140413919883980       -4.174067518859126
S           4.941995368663451        2.851156448576818        7.862804753250840        0.171516568716505        0.098957176886500        4.438780705256603
S           4.915896154185754        2.909181034883353       12.136542802793837        0.483507221157832       -0.168025009064147       -4.390387894163273
S           3.269787023338034        5.802843402014218        8.201354954987286        0.181812813034495       -0.167676367319773        4.162462582447580
S           3.398231425598982        5.748620596401508       12.123772121506786       -0.165991008444869        0.184310383760784       -4.323739471140904
