# total energy = -9693.286451421256 eV 

 CRYSTAL
 PRIMVEC
        7.293967529316399        0.000000000000000        0.000000000000000
       -3.646983764658200        6.316758229576235        0.000000000000000
        0.000000000000000        0.000000000000000       19.999949555872629
 PRIMCOORD
12 1
Mo          1.860221385219725        1.053542128727966        9.936825795257750       -0.348768756926734       -0.165143572464444       -0.240534007249685
Mo          0.060728114855582        4.198338417182991        9.879282226625469       -0.890751888948626        0.306707290195650        0.353746929090869
Mo          5.511227043573590        1.004948258254155       10.099746042182820       -0.562142389581715        0.276950100248309       -0.821736250188462
Mo          3.551170936589852        4.272487432292515       10.147776818363370        0.815737606723871       -0.302313530041075       -1.887038353828421
S           1.716220231272196        3.215709699568544        8.313523416341516        0.419783172177136       -0.223949613121849        1.960432840338165
S           1.816106740205667        3.167065500718780       11.412798053446076       -0.326562900336516       -0.185501576387394       -0.581616704953476
S           0.050299929478919        6.290692507213469        8.363347049740769        0.011348854422317        0.095484900516464        2.260256512965880
S          -0.043175911393035        6.286944866696906       11.658499726051616        0.312137719607833        0.099263138299335       -2.513410271498088
S           5.390123112494091        3.176741678043171        8.405513476027748        0.291295576743396       -0.061128262069783        2.421105055681235
S           5.420517075188753        3.203267649757036       11.673784964406053        0.101462975146579       -0.191074702088757       -2.116313238196192
S           3.584517497340381        6.337282724806978        8.353237610745138        0.211345288465183        0.009608731025619        2.669333092577222
S           3.652576778959679        6.281056446710489       11.598693568691740       -0.034885257492723        0.341097352998355       -1.504225861849477
