# total energy = -38804.36617000458 eV 

 CRYSTAL
 PRIMVEC
       12.740577282373799        0.000000000000000        0.000000000000000
       -6.370288641186900       11.033658440967770        0.000000000000000
        0.000000000000000        0.000000000000000       19.999979849788435
 PRIMCOORD
48 1
Mo          1.590438113601927        0.918231241548875        9.999991198951946       -0.000328844241190       -0.000189747498044        0.000000000000000
S           1.590438113601927        2.757176863158960        8.438994011334129        0.000020311724045        0.000002313993879       -0.056256276513632
S           1.590438113601927        2.757176863158960       11.560989660627493        0.000020311724045        0.000002313993879        0.056256276513632
Mo         -0.002132772637069        3.676646488819681        9.999991198951946       -0.000065563159893        0.000037538122919        0.000000000000000
S          -0.002134046694798        5.515590836372038        8.438994011334129       -0.000006684871205        0.000012855521548       -0.056275045575092
S          -0.002134046694798        5.515590836372038       11.560989660627493       -0.000006684871205        0.000012855521548        0.056275045575092
Mo         -1.594706206991522        6.435060462032760        9.999991198951946        0.000249140007595        0.000143724730903        0.000000000000000
S          -1.594706206991522        8.274006083642846        8.438994011334129        0.000007713312929       -0.000012084190255       -0.056275045575092
S          -1.594706206991522        8.274006083642846       11.560989660627493        0.000007713312929       -0.000012084190255        0.056275045575092
Mo         -3.187277093230519        9.193474435245838        9.999991198951946       -0.000000257110431       -0.000075590466701        0.000000000000000
S          -3.187278367288247       11.032421330913650        8.438994011334129        0.000012084190255        0.000016455067581       -0.056256276513632
S          -3.187278367288247       11.032421330913650       11.560989660627493        0.000012084190255        0.000016455067581        0.056256276513632
Mo          4.775582434195377        0.918231241548875        9.999991198951946       -0.000236284486047       -0.000544045671899        0.000000000000000
S           4.775582434195377        2.757176863158960        8.438994011334129        0.000007456202498        0.000004370877326       -0.056273760022937
S           4.775582434195377        2.757176863158960       11.560989660627493        0.000007456202498        0.000004370877326        0.056273760022937
Mo          3.183011547956380        3.676646488819681        9.999991198951946       -0.000589297107747        0.000067362932910        0.000000000000000
S           3.183010273898652        5.515590836372038        8.438994011334129        0.000007456202498       -0.000014398184133       -0.056262961384837
S           3.183010273898652        5.515590836372038       11.560989660627493        0.000007456202498       -0.000014398184133        0.056262961384837
Mo          1.590438113601927        6.435060462032760        9.999991198951946       -0.000296448326890        0.000176891976496        0.000000000000000
S           1.590438113601927        8.274006083642846        8.438994011334129       -0.000014655294564       -0.000008484644221       -0.056275559795954
S           1.590438113601927        8.274006083642846       11.560989660627493       -0.000014655294564       -0.000008484644221        0.056275559795954
Mo         -0.002132772637069        9.193474435245838        9.999991198951946        0.000005142208619       -0.000345299308771        0.000000000000000
S          -0.002134046694798       11.032421330913650        8.438994011334129       -0.000008741754652        0.000013626852841       -0.056262961384837
S          -0.002134046694798       11.032421330913650       11.560989660627493       -0.000008741754652        0.000013626852841        0.056262961384837
Mo          7.960726754788827        0.918231241548875        9.999991198951946        0.000330644014207       -0.000489024039675        0.000000000000000
S           7.960726754788827        2.757176863158960        8.438994011334129       -0.000022111497062        0.000002313993879       -0.056270417587335
S           7.960726754788827        2.757176863158960       11.560989660627493       -0.000022111497062        0.000002313993879        0.056270417587335
Mo          6.368154594492102        3.676646488819681        9.999991198951946        0.000095645080315        0.000055278742655        0.000000000000000
S           6.368154594492102        5.515590836372038        8.438994011334129       -0.000008998865083       -0.000020311724045       -0.056270417587335
S           6.368154594492102        5.515590836372038       11.560989660627493       -0.000008998865083       -0.000020311724045        0.056270417587335
Mo          4.775582434195377        6.435060462032760        9.999991198951946       -0.000258138872678        0.000530933039920        0.000000000000000
S           4.775582434195377        8.274006083642846        8.438994011334129        0.000000000000000       -0.000028282147405       -0.056256019403202
S           4.775582434195377        8.274006083642846       11.560989660627493        0.000000000000000       -0.000028282147405        0.056256019403202
Mo          3.183011547956380        9.193474435245838        9.999991198951946        0.000005142208619        0.000002828214740        0.000000000000000
S           3.183010273898652       11.032421330913650        8.438994011334129       -0.000024425490941        0.000014141073702       -0.056256019403202
S           3.183010273898652       11.032421330913650       11.560989660627493       -0.000024425490941        0.000014141073702        0.056256019403202
Mo         11.145871075382276        0.918231241548875        9.999991198951946        0.000274079719397       -0.000160951129777        0.000000000000000
S          11.145871075382276        2.757176863158960        8.438994011334129       -0.000013369742410        0.000012084190255       -0.056263989826561
S          11.145871075382276        2.757176863158960       11.560989660627493       -0.000013369742410        0.000012084190255        0.056263989826561
Mo          9.553298915085552        3.676646488819681        9.999991198951946        0.000576698696630        0.000055021632224        0.000000000000000
S           9.553298915085552        5.515590836372038        8.438994011334129       -0.000007970423360       -0.000004627987757       -0.056272217360352
S           9.553298915085552        5.515590836372038       11.560989660627493       -0.000007970423360       -0.000004627987757        0.056272217360352
Mo          7.960726754788827        6.435060462032760        9.999991198951946        0.000336043333257        0.000472054751232        0.000000000000000
S           7.960726754788827        8.274006083642846        8.438994011334129        0.000003856656464       -0.000017483509305       -0.056263989826561
S           7.960726754788827        8.274006083642846       11.560989660627493        0.000003856656464       -0.000017483509305        0.056263989826561
Mo          6.368154594492102        9.193474435245838        9.999991198951946       -0.000002313993879        0.000318045603090        0.000000000000000
S           6.368154594492102       11.032421330913650        8.438994011334129        0.000000514220862        0.000000257110431       -0.056178629163484
S           6.368154594492102       11.032421330913650       11.560989660627493        0.000000514220862        0.000000257110431        0.056178629163484
