# total energy = -9699.28804456827 eV 

 CRYSTAL
 PRIMVEC
        6.338432170797099        0.000000000000000        0.000000000000000
       -3.169216085398550        5.489240720714558        0.000000000000000
        0.000000000000000        0.000000000000000       19.999965611692456
 PRIMCOORD
12 1
Mo          1.609860356467730        0.941170340842629        9.862345018943804       -0.618303792346325       -0.365407401355502        2.020452699340105
Mo          0.038862829168808        3.610065452055395       10.023573816542719       -0.617766688656062        1.834445129624592       -2.919822929934314
Mo          4.792090510799360        0.926415104592231        9.838274822775201       -0.493575408523566       -0.063082044234604        2.684050607865901
Mo          3.123908972241692        3.689757292052393       10.106852575305171        0.254262932931344       -1.122916951670753       -6.201987476445433
S           1.558017052056347        2.729156487390185        8.353037550433598        0.447490677768911        0.680060175198929        0.095972381893553
S           1.563815449806192        2.764024202761740       11.463808854314879        0.098449640895796       -1.470297826491197        2.573522690255171
S           0.051660123721648        5.462013351481682        8.535952026018460       -0.507112529823733       -0.839702355772246       -2.984966228493878
S          -0.029853381681237        5.511398611897230       11.498663258978874        0.569716605767193        0.202331253866361        0.251270681735900
S           4.687186922999801        2.781449186642479        8.439764416296963        0.324340180660918        0.606877547684291       -0.869595814247994
S           4.770272359581043        2.747425116592856       11.334736824648070       -0.113809932261860       -1.200509023076255        3.963044903984791
S           3.180571386632532        5.510880761988877        8.400308943720185        0.319427057435815       -0.901399603225731       -1.146607620999731
S           3.155061732517943        5.437323256646776       11.414381126403786        0.336881256151569        2.639601356562545        2.534665333714637
