# total energy = -9678.824207994188 eV 

 CRYSTAL
 PRIMVEC
        8.727297025957800        0.000000000000000        0.000000000000000
       -4.363648512978900        7.558057406905104        0.000000000000000
        0.000000000000000        0.000000000000000       19.999988775209427
 PRIMCOORD
12 1
Mo          2.233515164044495        1.259702416375262        9.912929999744055       -0.038242091279260        1.435789492890253        0.195944116540598
Mo          0.100263551882716        4.979526009533418       10.072342807220199        1.186192857170296       -0.643681877433655       -0.022754273139443
Mo          6.528204066843087        1.301730460663167       10.011799802291726       -0.129906845012607        0.050122907183221       -0.074137792765632
Mo          4.320006791470895        5.095222913476838        9.859396759786829       -1.151368791960141       -0.891650747015242        0.152071821044303
S           2.111954389229334        3.800030943745519        8.771013802220226        0.047761862095769       -0.031841069990225        0.045094855595481
S           2.264564268673745        3.776833788250523       11.220214512234541       -0.123549018275972        0.043688204427731       -0.100164567470260
S           0.036459156055641        7.495313377666682        8.877415262101300        0.010857002167901        0.171526081802450       -1.847101390588311
S          -0.014765713838218        7.531500242055114       10.855581933382105        0.105211131009029       -0.074296944122393        1.777525251088667
S           6.576502674044143        3.706037082046251        8.839941994131241       -0.152708426471346       -0.087889858386078        0.296568911682266
S           6.502016939386998        3.802767824092860       10.954349626554574        0.306827360766906       -0.063026508381517       -0.368009873137620
S           4.383833878270237        7.500245173216051        9.002700847287139       -0.002059197441512       -0.290464852940983       -2.940357825833761
S           4.423599807169015        7.590928771153374       10.931715381717751       -0.059015842769063        0.381725171966439        2.885320766983714
