# total energy = -9160.744699457147 eV 

 CRYSTAL
 PRIMVEC
        4.204419078754800        0.000000000000000        0.000000000000000
       -2.102209539377400        3.641132032678625        0.000000000000000
        0.000000000000000        0.000000000000000       20.000118839462914
 PRIMCOORD
12 1
Mo          1.014527164587349        0.594536390879019        9.872887094530636        6.002154050415792      -49.696065558382820       12.157837995129828
Mo          0.034843702673273        2.417062507392848        9.829365470878813      -32.776649597031629       59.001574939918541       20.181241273000822
Mo          3.135081425289171        0.625324090467017       10.014336365597185        1.857674799950870      -63.256003866634977      -20.898882251450594
Mo          2.098040857860815        2.405153910794182        9.934628147818334       22.474645491167035       64.132033098086310       21.634388033974361
S           1.068127621654762        1.846427818534641        9.304626641126204       22.477048188144302      -18.736338757995828     -176.164814718755139
S           1.036177400191489        1.808197876735340       10.709327259757261       -6.491201487139824       -5.155002691237941      154.705954947551504
S           0.013408312884057        3.623603389097389        8.972065080392946        7.072877584602851       14.713693856342845     -105.317113985551401
S          -0.015719061609741        3.631701941126886       10.836750588777081      -14.312085049198567      -11.005225045794301      106.351592662286834
S           3.157815139689907        1.818617688538218        9.252662543964240       -8.984635306594498      -10.734681880374939     -152.366024282910246
S           3.170929143238451        1.788310974492830       10.719330413629434       11.941258195400851       32.793367174362693      147.587433062362209
S           2.129684156731339        3.647324721539724        8.999364373471304      -21.114037402281657       -5.286896228550531     -108.888288139964288
S           2.055235667220012        3.663891814477649       10.940706111825017       11.852950275454040       -6.770454782628620      101.016675661436580
