# total energy = -9626.454765913577 eV 

 CRYSTAL
 PRIMVEC
        4.745873239931600        0.000000000000000        0.000000000000000
       -2.372936619965800        4.110044872611764        0.000000000000000
        0.000000000000000        0.000000000000000       20.000016294860590
 PRIMCOORD
12 1
Mo          1.221741063664044        0.668993953282450        9.802573176426606       -4.414123300707237       -0.804359698822856       21.682898344534635
Mo         -0.024867901189918        2.744297878879180       10.170984400534042       -6.109371157007125        1.963841096210893      -12.481467779670020
Mo          3.565333474800023        0.644792847282743       10.105277785527191        2.107177590363529        4.402579042357395        0.161391559945530
Mo          2.414174936309538        2.732082001159596       10.008858726435443        1.152450198432734        2.465242174921412        7.156161823839246
S           1.191534529666527        2.094715021735374        8.624846764951659       -2.324016043186047        5.155863239850345      -23.685145825590169
S           1.122696112908643        2.092094350532284       11.358661009843830        9.186445397617314       -8.267573855056092       26.123538729538328
S           0.053210730766113        4.070578665335817        8.627247227636415        5.407620374521610       -3.847153662784358      -24.903031400032031
S           0.054340248597217        4.082586199220168       11.598889045264661       -3.978623224996304        3.730294915032244       17.176283937168964
S           3.600844945905135        2.044100758218828        8.602279663108460        1.422269855099390       -1.809680767135950      -18.645843599612892
S           3.572239194951447        2.055359867893241       11.623955323956007       -3.268964754096363       -0.872869087144471       16.610300060638366
S           2.341737723873814        4.087236205820653        8.572793552668765       -3.618056698834808       -0.582197260306570      -22.455234167850858
S           2.338191607388937        4.145150571554862       11.613476910429561        4.437192019903737       -1.533986394232421       13.260148831311760
