# total energy = -9697.028463295706 eV 

 CRYSTAL
 PRIMVEC
        7.039168683922899        0.000000000000000        0.000000000000000
       -3.519584341961449        6.096096059494329        0.000000000000000
        0.000000000000000        0.000000000000000       19.999981709846463
 PRIMCOORD
12 1
Mo          1.781433391182577        1.022502603857956        9.960967111573302        0.175712610949676       -0.400831305201074       -0.503925903142488
Mo         -0.032513216234171        4.078785053131574       10.134953540016955        0.435294130255738       -0.863317948855386       -2.306466456500409
Mo          5.342343988570470        1.003843879427482        9.965367295917620       -1.252049637175757        0.354474551610469        0.237571323753800
Mo          3.583088202243460        4.021794535632798        9.851710062679528       -0.280095075039740        0.179078957822159        1.818187779964930
S           1.770124262774987        3.071855906069929        8.576384452868586       -0.492875811040940       -0.099100387396541       -0.734487368106753
S           1.819606099038623        3.018522940619318       11.414221788207762        0.036368013348035        0.181088018729635        0.568821861467473
S           0.066503953975098        6.057437648999093        8.356998905997971       -0.248882640053197        0.047464899548017        1.471845374175110
S           0.003718088898848        6.076887575989639       11.346362090344138        0.131485760169096        0.749060130222804        1.237292269770281
S           5.298055650961833        3.026073856866562        8.444442978974005        0.479191622574266        0.049092665686388        0.727519418317465
S           5.262034113055593        3.020971867404455       11.556320782513245        0.021761312655098        0.016969802663837       -0.965680039179012
S           3.469375359572764        6.120899274268999        8.621711771774972        0.955323373909747       -0.204426446768206       -2.079398093851087
S           3.567986369748972        6.052209658417542       11.397177145156510        0.038766596558407       -0.009553195172533        0.528720347551552
