# total energy = -9680.648414683888 eV 

 CRYSTAL
 PRIMVEC
        6.529570993135899        0.000000000000000        0.000000000000000
       -3.264785496567950        5.654771719330517        0.000000000000000
        0.000000000000000        0.000000000000000       20.000062892833274
 PRIMCOORD
12 1
Mo          1.612780528848992        0.972345840786038        9.920249883237005        0.849239867208491       -1.353125661123750       -0.178391444529788
Mo         -0.043644305475220        3.744146768500929       10.168988013606624       -1.972455324089582        4.670994104739750       -2.740629557970380
Mo          4.872988143193654        0.984957707159280       10.103662267648696       -0.577284394191898       -1.226837645426823       -1.143940871609875
Mo          3.237209812349738        3.740940096186200        9.876394019661609        0.712571789193083        0.412661213239706        2.176158776325945
S           1.563035645194885        2.848743433426707        8.841005170936842       -1.356657072892905        0.927970166491827      -10.813033455993478
S           1.563367347401337        2.845770519753532       10.894805330847122        3.761702239725450       -1.133646684175332       12.727006441458228
S          -0.030739261364386        5.702796713985032        8.857274902980439        1.539617112670318       -1.792162290812457       -8.423839147229259
S          -0.040396496863234        5.701841437748736       11.155819707640934       -1.024687397303853        0.168555684993636        9.210551814513146
S           4.866697554498868        2.866539779168499        8.959500560534776        2.392394819408738       -1.217219658425690      -10.965395297603900
S           4.927194682707370        2.800974397955123       11.197253100377878       -3.475145722445400        1.283193166566803       10.670740830190518
S           3.217706636750341        5.653782489325057        8.963074194739320       -0.798254354529419        0.618755792483942      -10.939606350047903
S           3.302047799354478        5.660568019501124       11.076453425176467       -0.051041819863451       -1.359138188551613       10.420378262496749
