# total energy = -9686.74373775699 eV 

 CRYSTAL
 PRIMVEC
        7.994704042442199        0.000000000000000        0.000000000000000
       -3.997352021221099        6.923613568356005        0.000000000000000
        0.000000000000000        0.000000000000000       19.999959362479569
 PRIMCOORD
12 1
Mo          1.977979320785475        1.172788705798888       10.019253313745304        0.214655071042856        0.125712859662883        0.198063477822953
Mo          0.028570673836476        4.571724337916721       10.046456093720117        0.267346511431309        0.118121159968099       -0.354976174061261
Mo          5.928811758124413        1.221528418993637       10.103358399742199        0.013725583246057       -0.841412654358954        0.739513362811045
Mo          3.946063596377620        4.578919571554919       10.027709312210995       -0.170630823281867        0.016007438320775       -0.403434034093623
S           1.931433354379973        3.467699680527687        8.745421941965203       -0.061424967507104        0.126957017038270       -0.412304086851110
S           2.076430103716130        3.401420386134224       11.357498015995363       -0.147790418148054        0.101556306233015        0.388850473339472
S           0.017278953846930        6.963003475173117        8.554914540397039       -0.134469012499457       -0.074147048741147        0.328726998833858
S          -0.037220144139994        6.990634771284606       11.230856307670249        0.181723081494092       -0.026537396020503        0.011253209342002
S           5.986716600033416        3.424409957078671        8.856488367874830       -0.141518466295359        0.566589885816360       -0.758743166162969
S           5.983710591313459        3.409442272170411       11.267171451312638        0.149448266206847       -0.105816368963495        0.536627778855547
S           3.965108580347525        6.884594615806462        8.782837156883831       -0.022184773534880       -0.171524282029433       -0.035048008395517
S           4.053343730452747        6.941949422077347       11.437618541497507       -0.148880052154438        0.164492825963699       -0.238530088550828
