# total energy = -9671.358882692197 eV 

 CRYSTAL
 PRIMVEC
        8.536211121343900        0.000000000000000        0.000000000000000
       -4.268105560671950        7.392572236361851        0.000000000000000
        0.000000000000000        0.000000000000000       20.000043889919510
 PRIMCOORD
12 1
Mo          2.175486695497866        1.223682083045779       10.023015083236206       -0.089921802121908       -0.754957472177600        0.075152093415747
Mo          0.058174278791959        4.924909813844851       10.017763606154357       -0.258728426896156        0.276132489077874        0.183611814719881
Mo          6.365102648530171        1.236010932768336        9.995835787025849       -0.054804888130896        0.275594871166749        0.011735034289610
Mo          4.367261335436369        4.869403954649424        9.905395483816323        0.479891220056893        0.153156055731637        0.246627010242437
S           2.109090338153829        3.732038331220450        7.975706426694217        0.101863810308436        0.065255655817890        3.325060850811512
S           2.181594354555188        3.752072818722244       12.046888425765660       -0.153682875004662       -0.091283201853811       -3.371836180183709
S          -0.039946907184553        7.388663505289388        8.112574328571620        0.062408929126366        0.088571972359399        3.170201181364372
S          -0.022391335392397        7.343080137901412       11.812857954420672        0.007585786154872        0.046313816148635       -3.156893659679047
S           6.375049041728762        3.627053177881266        8.329197758197965       -0.318226094612828        0.010972444751400        2.794666457244017
S           6.359950191497329        3.677499624745072       11.891185374049011       -0.041025825915201       -0.082565615581879       -3.118134776433569
S           4.313054687573611        7.381791855336705        8.247114405676234        0.090026960288169       -0.138166517607009        2.748069305400470
S           4.368100444989596        7.346473281822145       11.815009933244362        0.174613206746916        0.150975245056284       -2.908259131191720
