# total energy = -9685.116619127763 eV 

 CRYSTAL
 PRIMVEC
        7.994704042442199        0.000000000000000        0.000000000000000
       -3.997352021221099        6.923613568356005        0.000000000000000
        0.000000000000000        0.000000000000000       19.999959362479569
 PRIMCOORD
12 1
Mo          2.019034524454629        1.104970430877255        9.860747113518228        0.753537708377871        1.045019175962847       -0.235767179859795
Mo         -0.019577431259132        4.568121124804793       10.092121843210547        0.856167707770551        0.132694950525874        0.301989570898072
Mo          5.908358107302227        1.206337681842593        9.880277376023511       -0.122607479877818       -0.352685834342321       -0.405545682063049
Mo          4.019541322290898        4.615524922954049       10.077900064189448       -0.299499199263850       -1.186394688858595        0.435616803846586
S           2.041537217922891        3.500144587943130        8.838280429418168       -0.151666872115550       -0.248823504654078       -1.374349870088585
S           2.065861904442425        3.466762701213912       11.161615774899467       -0.278587122362194        0.254832175425477        1.101049709518102
S           0.088209567052286        6.873390038090979        8.922254402268768       -0.007659062627694        0.070459570940402       -1.761815546646937
S          -0.111513329865601        6.988652884152486       11.062288772405759        0.132947175858640       -0.352909520417251        2.084648288851171
S           6.026392717255248        3.424284440225204        8.905726151131423       -0.090375859142974       -0.011915525812140       -2.779411324044213
S           5.992040273455278        3.476662543229669       10.966435468818494       -0.103789824546714        0.206597744357614        2.638540518924428
S           3.964618504989724        6.910338362293530        8.955479592798753       -0.332807341373100        0.524614808190076       -2.357032107845733
S           4.059377333593579        6.907464266190272       10.966529806326195       -0.355659830697168       -0.081489351317905        2.352076818509954
