# total energy = -9452.796345684928 eV 

 CRYSTAL
 PRIMVEC
        3.631055529463300        0.000000000000000        0.000000000000000
       -1.815527764731650        3.144584864903454        0.000000000000000
        0.000000000000000        0.000000000000000       19.999933739505504
 PRIMCOORD
12 1
Mo          0.958947967320246        0.494265814570497        9.823183121611983      -11.294402546807495        2.638891988883542        6.234403188248841
Mo          0.004841649442986        2.109167957449371       10.193666616288629        3.596168116516386      -14.858235941306226        2.141736060498509
Mo          2.699725733605705        0.537601736103536       10.031341368160632       13.717470640629067        2.503839078595388       -3.416261520216985
Mo          1.817109089414731        2.091781374257641       10.032252763098526       -0.803745976224169       -0.221224242553734        5.041345482572069
S           0.913806684977958        1.550718152917868        8.462201418119585       -4.729735353568554       11.621803884259354      -36.974573621447696
S           0.922530295887493        1.590263978689253       11.883521370512238        1.582061673943523       -3.273260812287176       24.790401347537820
S           0.023230767066400        3.162204198754622        8.138746991554994        1.789454146643217       -5.277443820666933      -27.011813359484712
S          -0.014250803636485        3.168844673106904       11.662830898909199       -3.011792616638773        5.657608075207048       32.073456939249319
S           2.711635595742345        1.577288038649163        8.296775611674979        3.687875293470840        3.072929877573639      -24.225655714842691
S           2.761283744207802        1.564419577852745       11.800016170973405       -2.768122376352309       -1.538068279434250       29.199303249613237
S           1.815626892547604        3.161269565061338        8.442806861220062       -6.211944334994564       -4.535649631222893      -37.642597428931936
S           1.806449399696886        3.118458331052307       11.562210356026689        4.446713076272401        4.208809822952239       29.790255377204232
