# total energy = -38804.36617000458 eV 

 CRYSTAL
 PRIMVEC
       12.740577282373799        0.000000000000000        0.000000000000000
       -6.370288641186900       11.033658440967770        0.000000000000000
        0.000000000000000        0.000000000000000       19.999979849788435
 PRIMCOORD
48 1
Mo          1.590438113601927        0.918231241548875        9.999991198951946       -0.000329358462052       -0.000190261718906        0.000000000000000
S           1.590438113601927        2.757176863158960        8.438994011334129        0.000020825944907        0.000003342435602       -0.056255505182340
S           1.590438113601927        2.757176863158960       11.560989660627493        0.000020825944907        0.000003342435602        0.056255505182340
Mo         -0.002132772637069        3.676646488819681        9.999991198951946       -0.000063249166015        0.000037795233350        0.000000000000000
S          -0.002134046694798        5.515590836372038        8.438994011334129       -0.000004885098188        0.000012084190255       -0.056275559795954
S          -0.002134046694798        5.515590836372038       11.560989660627493       -0.000004885098188        0.000012084190255        0.056275559795954
Mo         -1.594706206991522        6.435060462032760        9.999991198951946        0.000248368676302        0.000143467620472        0.000000000000000
S          -1.594706206991522        8.274006083642846        8.438994011334129        0.000007970423360       -0.000010284417238       -0.056275559795954
S          -1.594706206991522        8.274006083642846       11.560989660627493        0.000007970423360       -0.000010284417238        0.056275559795954
Mo         -3.187277093230519        9.193474435245838        9.999991198951946        0.000001028441724       -0.000073790693684        0.000000000000000
S          -3.187278367288247       11.032421330913650        8.438994011334129        0.000013369742410        0.000016197957150       -0.056255505182340
S          -3.187278367288247       11.032421330913650       11.560989660627493        0.000013369742410        0.000016197957150        0.056255505182340
Mo          4.775582434195377        0.918231241548875        9.999991198951946       -0.000235513154754       -0.000543788561468        0.000000000000000
S           4.775582434195377        2.757176863158960        8.438994011334129        0.000006427760774        0.000003599546033       -0.056272474470783
S           4.775582434195377        2.757176863158960       11.560989660627493        0.000006427760774        0.000003599546033        0.056272474470783
Mo          3.183011547956380        3.676646488819681        9.999991198951946       -0.000588782886885        0.000067877153772        0.000000000000000
S           3.183010273898652        5.515590836372038        8.438994011334129        0.000008484644221       -0.000014655294564       -0.056261418722252
S           3.183010273898652        5.515590836372038       11.560989660627493        0.000008484644221       -0.000014655294564        0.056261418722252
Mo          1.590438113601927        6.435060462032760        9.999991198951946       -0.000293877222581        0.000175863534773        0.000000000000000
S           1.590438113601927        8.274006083642846        8.438994011334129       -0.000014655294564       -0.000008484644221       -0.056275045575092
S           1.590438113601927        8.274006083642846       11.560989660627493       -0.000014655294564       -0.000008484644221        0.056275045575092
Mo         -0.002132772637069        9.193474435245838        9.999991198951946        0.000005399319050       -0.000342213983600        0.000000000000000
S          -0.002134046694798       11.032421330913650        8.438994011334129       -0.000008484644221        0.000014655294564       -0.056261418722252
S          -0.002134046694798       11.032421330913650       11.560989660627493       -0.000008484644221        0.000014655294564        0.056261418722252
Mo          7.960726754788827        0.918231241548875        9.999991198951946        0.000329872682914       -0.000489538260537        0.000000000000000
S           7.960726754788827        2.757176863158960        8.438994011334129       -0.000022111497062        0.000001285552155       -0.056269389145611
S           7.960726754788827        2.757176863158960       11.560989660627493       -0.000022111497062        0.000001285552155        0.056269389145611
Mo          6.368154594492102        3.676646488819681        9.999991198951946        0.000095645080315        0.000055278742655        0.000000000000000
S           6.368154594492102        5.515590836372038        8.438994011334129       -0.000010027306807       -0.000019797503183       -0.056269389145611
S           6.368154594492102        5.515590836372038       11.560989660627493       -0.000010027306807       -0.000019797503183        0.056269389145611
Mo          4.775582434195377        6.435060462032760        9.999991198951946       -0.000258910203971        0.000530418819058        0.000000000000000
S           4.775582434195377        8.274006083642846        8.438994011334129        0.000000257110431       -0.000028539257836       -0.056254990961478
S           4.775582434195377        8.274006083642846       11.560989660627493        0.000000257110431       -0.000028539257836        0.056254990961478
Mo          3.183011547956380        9.193474435245838        9.999991198951946        0.000004370877326        0.000002571104310        0.000000000000000
S           3.183010273898652       11.032421330913650        8.438994011334129       -0.000024425490941        0.000014655294564       -0.056254990961478
S           3.183010273898652       11.032421330913650       11.560989660627493       -0.000024425490941        0.000014655294564        0.056254990961478
Mo         11.145871075382276        0.918231241548875        9.999991198951946        0.000273822608966       -0.000161979571501        0.000000000000000
S          11.145871075382276        2.757176863158960        8.438994011334129       -0.000013112631979        0.000011312858962       -0.056263218495268
S          11.145871075382276        2.757176863158960       11.560989660627493       -0.000013112631979        0.000011312858962        0.056263218495268
Mo          9.553298915085552        3.676646488819681        9.999991198951946        0.000574641813183        0.000053993190500        0.000000000000000
S           9.553298915085552        5.515590836372038        8.438994011334129       -0.000009255975514       -0.000005399319050       -0.056272474470783
S           9.553298915085552        5.515590836372038       11.560989660627493       -0.000009255975514       -0.000005399319050        0.056272474470783
Mo          7.960726754788827        6.435060462032760        9.999991198951946        0.000334243560240        0.000470512088646        0.000000000000000
S           7.960726754788827        8.274006083642846        8.438994011334129        0.000003342435602       -0.000016969288443       -0.056263218495268
S           7.960726754788827        8.274006083642846       11.560989660627493        0.000003342435602       -0.000016969288443        0.056263218495268
Mo          6.368154594492102        9.193474435245838        9.999991198951946       -0.000003342435602        0.000318045603090        0.000000000000000
S           6.368154594492102       11.032421330913650        8.438994011334129       -0.000000771331293       -0.000000514220862       -0.056177343611330
S           6.368154594492102       11.032421330913650       11.560989660627493       -0.000000771331293       -0.000000514220862        0.056177343611330
