# total energy = -9682.611333914398 eV 

 CRYSTAL
 PRIMVEC
        7.548819292434800        0.000000000000000        0.000000000000000
       -3.774409646217400        6.537466227730848        0.000000000000000
        0.000000000000000        0.000000000000000       20.000053200316945
 PRIMCOORD
12 1
Mo          1.834754871782934        1.108760009325814        9.811671480701358        2.529273985087960        0.540420414822552       -0.171678291177575
Mo          0.026432945634390        4.345363838518776        9.857629447435629       -0.612206161365816        1.416392310647778       -0.610480436153252
Mo          5.558998839392459        1.150917145546345        9.941240924800566       -1.169069045358318       -1.841375027070100       -0.648870365930310
Mo          3.865712615559398        4.319725783555881       10.004290928176770       -1.459369090513059        0.611290848231619        0.166288228103052
S           1.940112987765517        3.273280522607187        8.908569239532849        0.018772146784825        0.275950197782328       -5.296531956171401
S           1.902562141077229        3.303476554658855       10.850404112978971        0.102501187066772        0.144897925799820        5.736949783095193
S          -0.059376747908504        6.552625766633914        8.950324023685093        0.272091227324137       -0.528627787796409       -3.474005180573688
S          -0.099034470061311        6.581831393594416       11.111085224958835       -0.042747694471301       -0.378727778562375        3.549231064683118
S           5.591268532103759        3.258545227348354        9.095482534505111        1.205913998555773        0.373017613001314       -8.223516954270375
S           5.684867852274516        3.205372854016302       10.947587612549775        0.959488562891205        0.690076169147179        8.643374431362055
S           3.757661080853275        6.578525765626259        9.182358121332095       -1.394543837556587       -0.877218110084061      -12.320066192417682
S           3.765166116993814        6.595739338258798       10.923549152394948       -0.410105278445590       -0.426096775919646       12.649306383671725
