# total energy = -9698.205799315992 eV 

 CRYSTAL
 PRIMVEC
        6.338432170797099        0.000000000000000        0.000000000000000
       -3.169216085398550        5.489240720714558        0.000000000000000
        0.000000000000000        0.000000000000000       19.999965611692456
 PRIMCOORD
12 1
Mo          1.552979266166997        0.888198161661627        9.866909957793212        0.321630750939523       -1.316257310877078        7.994752434108046
Mo          0.028373357769356        3.642153764920056       10.071631175418483       -1.106249767984150       -0.937822123985128        1.986676359136087
Mo          4.738398285723756        0.877755594660239       10.153375399752386        0.801154817301013        0.894993953948939       -1.786494548472504
Mo          3.158524418012849        3.671950100711756        9.978098734933333        2.156419380099870       -0.325168076248590        4.689416324228046
S           1.636304295484296        2.728026344934132        8.761636974205427       -1.524771556387024        1.211816482719188       -7.310463049430353
S           1.595455635516377        2.697534683133296       11.585262088512390        0.323666294221387       -0.250049664299298        0.488854603900817
S           0.029716471546348        5.440622410591676        8.726029563799541        1.009388041109926        0.040527031679150       -5.256493691421495
S           0.006061442684933        5.452924673591975       11.597192919387481       -1.079610556232989        0.302980731609401        1.027374201307325
S           4.721027812359686        2.736760070622273        8.548492614068383        0.869752908721307       -0.636513895729084       -1.425789439788722
S           4.817913917306406        2.719864979671014       11.563069335952779       -1.021078081074119        0.627248664239220        1.243546223892810
S           3.232890073456726        5.434888664849973        8.499603019048591       -2.096244997728927        0.514581073622090       -2.745571734674181
S           3.124135888113406        5.462116034082849       11.542938475378326        1.345942509903753       -0.126336352457946        1.094192317214123
