# total energy = -9694.608313697134 eV 

 CRYSTAL
 PRIMVEC
        6.784369838529400        0.000000000000000        0.000000000000000
       -3.392184919264700        5.875433889412424        0.000000000000000
        0.000000000000000        0.000000000000000       20.000016987341937
 PRIMCOORD
12 1
Mo          1.723891415045724        0.956031009225096       10.164701106812220       -0.672936416488482        0.483023853547638       -1.618580354004098
Mo          0.050786435737263        3.906172170416606       10.176077816594450       -0.801502173493232        0.163352284091986       -1.427823954628862
Mo          5.006855442716923        1.011421996771769       10.174824743485274        0.862940253632314        0.010620460571424       -1.558081241158860
Mo          3.413205610772399        3.934256747800183        9.869632580046964       -0.347447980642923       -0.049129689588445        0.817087179375949
S           1.649079490399276        2.948937613982155        8.326106350906480        0.438317491813328       -0.088759148753134        3.099567546662214
S           1.628956371021214        2.964747231016881       11.778821417870539        0.721253122894250       -0.220521045525075       -2.382235872060877
S           0.007046246514297        5.844648454396128        8.292438915582778       -0.094755478223847        0.161788281340492        3.655268291506803
S           0.001489847616541        5.928735969485814       11.769785994119585       -0.115675525548863       -0.373167251272130       -1.874132438636246
S           5.153002302467572        2.907692037548816        8.130102514086445       -0.538718600880067        0.307601263164078        4.037225119971532
S           5.098841999609608        2.923111553317826       11.983182241457675        0.012030711285207        0.083833684227345       -3.703047894222307
S           3.311585927145987        5.905731528237328        8.222074823802471        0.288150859062396       -0.277245777243906        3.519634825865555
S           3.337397740633655        5.888256348407244       11.741553517473530        0.248343993700349       -0.201396914560273       -2.564880951560371
