# total energy = -9605.304531668175 eV 

 CRYSTAL
 PRIMVEC
        5.191810907663900        0.000000000000000        0.000000000000000
       -2.595905453831950        4.496238041309629        0.000000000000000
        0.000000000000000        0.000000000000000       20.000080883695549
 PRIMCOORD
12 1
Mo          1.332522919025746        0.769693235596444        9.937289100131204       -6.199280874938779      -15.795195202685072       11.491281516875043
Mo          0.017787663350747        2.974899343193962       10.135353051990947       -2.165840934731754       12.842004995242387      -11.150454644050052
Mo          3.852348614178970        0.774101083057050        9.894117115709616       12.282854856856117      -12.088092934077048       15.268954171019210
Mo          2.611281521016088        2.998502873123475       10.153196267718407       -8.787391496825427       14.389408183093291      -19.905627889883046
S           1.297914826696349        2.229384370994509        9.029663985788673        2.039964038613923       11.477803016753134      -39.914082725748877
S           1.248549011861918        2.256464856688884       11.156869883852719        5.069057359041171       -8.171736970359653       38.716063560085985
S           0.067247449962607        4.453120051721481        8.896678345294315       -6.309457579700825       -8.364005950400191      -35.409072430361931
S          -0.028791187388450        4.525474166892866       11.252198281471609        1.903201343959924        3.792414080702924       26.066905014912056
S           3.929259062602922        2.223119412772231        8.875157769900959       -0.903107073597697       11.281919578274241      -33.204874475988277
S           3.870726586429919        2.266314241161813       10.969139193242503        4.519491526189579      -12.725512372743953       46.850147479163688
S           2.618240105175629        4.532024155533975        8.698950822781390        0.011382792999203       -5.503423577751596      -21.706398495034279
S           2.608108805370414        4.473223781918136       11.275383870623056       -1.460874214975865        8.864417668172397       22.897159176120905
