# total energy = -9695.791681395487 eV 

 CRYSTAL
 PRIMVEC
        6.911795720088600        0.000000000000000        0.000000000000000
       -3.455897860044300        5.985787888489730        0.000000000000000
        0.000000000000000        0.000000000000000       20.000075772584175
 PRIMCOORD
12 1
Mo          1.692275769951629        0.983176676358867       10.195706676050364        0.088297635529571        0.413041993787949       -2.075064240426923
Mo          0.017734976638175        3.949775384966227       10.011666291411565       -0.107284469524243        0.509487715984888        0.491692331727258
Mo          5.113020928143130        1.014038535428635        9.980478886763381        0.614445336108996       -0.487239179063132        0.253301082809145
Mo          3.409754020637416        4.026199110243247        9.896645025294854        0.413613293165529       -0.128155922977809        1.347851297743156
S           1.706473289540263        3.025677973704390        8.333059979855554        0.075652687424814       -0.184536126719161        2.628976010892933
S           1.742814129077345        3.036873700411789       11.829227344124234       -0.162083187004796       -0.356892418103162       -3.177890840133349
S          -0.079294194039572        6.011797666963995        8.229341573279905        0.241054141651505       -0.129039868639429        3.244851909439758
S           0.011123844031911        5.927699774898961       11.590290021978632       -0.118860609567523        0.207418440853220       -1.544029127665491
S           5.263315852537740        2.945297245377619        8.497809542639587       -0.660232847205468        0.422768738501375        0.956721540433276
S           5.133716226888219        3.048325163560831       11.779662857015479        0.090092009227200       -0.279603222785325       -3.092935640206182
S           3.484627430134420        6.037140457151272        8.251278921715894       -0.314954364378936       -0.218992009792190        3.012327406335157
S           3.409839035724774        5.942073545278458       11.627729145855637       -0.159739625426649        0.231741858952776       -2.045801730948738
