# total energy = -9664.47661529484 eV 

 CRYSTAL
 PRIMVEC
        8.536211121343900        0.000000000000000        0.000000000000000
       -4.268105560671950        7.392572236361851        0.000000000000000
        0.000000000000000        0.000000000000000       20.000043889919510
 PRIMCOORD
12 1
Mo          2.192320103829156        1.183091545542676        9.893811845324658       -0.098104341587025       -0.220742674716557        0.105776259736266
Mo         -0.068993072767150        4.905932109279878        9.964558255856131       -0.007691715652425       -0.066775435575260       -0.030332345981386
Mo          6.376555682991678        1.281239193773664        9.874916942007564        0.266182572510379       -0.105061235627782        0.034862631774799
Mo          4.156511672682621        4.989082488191777        9.829582831984329       -0.166541738987972        0.425002771035936       -0.271833088451459
S           2.060463811501093        3.752887173263221        8.004323220857410        0.221397277873767        0.118306793699248        3.430280723575192
S           2.197253180236181        3.715194679435814       12.275805706648963       -0.075856575996561        0.061559436262493       -3.209774076234251
S          -0.000304742737032        7.361305802266592        7.833173041495577       -0.125974083860732        0.211807058799176        3.530061939392900
S          -0.075516445306081        7.387885002835120       12.192963484958545       -0.148699303521477       -0.041612809029069       -3.467577676910265
S           6.368506035904251        3.739316304822508        7.786213636874840       -0.052084145550539       -0.092408574210097        3.438613415531986
S           6.464961807090988        3.636583003977135       12.090674067091481        0.276956528009082       -0.018703755410191       -3.502605373581736
S           4.239496449098766        7.347239833580842        7.934182027694439       -0.070947309427922       -0.224361246921806        3.366240685874854
S           4.228395960156570        7.345034930248199       11.994715103392007       -0.018637420919005       -0.047010328306090       -3.423712580506037
