# total energy = -38803.48138941849 eV 

 CRYSTAL
 PRIMVEC
       12.740577282373799        0.000000000000000        0.000000000000000
       -6.370288641186900       11.033658440967770        0.000000000000000
        0.000000000000000        0.000000000000000       19.999979849788435
 PRIMCOORD
48 1
Mo          1.590438113601927        0.918231241548875        9.999991198951946        0.004447496234645       -0.002944942876149        0.000189747498044
S           1.590439387659655        2.757176863158960        8.438994011334129        0.016758715000023       -0.007158211508195       -0.034758502050262
S           1.590436839544199        2.757175589101232       11.560989660627493       -0.015178514291379        0.009920863088797        0.088116629786179
Mo         -0.002132772637069        3.676646488819681        9.999991198951946        0.000654088936347       -0.082593126397991       -0.769040696033114
S          -0.002132772637069        5.515590836372038        8.352391211314920        0.027619316713958        0.017286562714772        0.899076096261198
S          -0.002134046694798        5.515590836372038       11.474390682781470       -0.027538584038638       -0.013087949377291        1.186570038172506
Mo         -1.594706206991522        6.435060462032760        9.999991198951946       -0.003489245658479       -0.011980317640740       -0.744398718109605
S          -1.594707481049251        8.274004809585115        8.525594263237879       -0.043353960867491        0.046767616059269       -1.167752125730971
S          -1.594704932933794        8.274006083642846       11.647589912531243        0.042296722775407       -0.040681297937722       -0.866638015850297
Mo         -3.187277093230519        9.193474435245838        9.999991198951946        0.002547707260325        0.079536854705239        1.468942083188776
S          -3.187277093230519       11.032421330913650        8.439000381622771       -0.040717036287625       -0.076955208868028       -0.068973215539056
S          -3.187279641345976       11.032421330913650       11.560999853089319        0.046326928780614        0.073754184002649        0.068756985666624
Mo          4.775582434195377        0.918231241548875        9.999991198951946       -0.067875868219744       -0.042529407715421       -1.468851580317080
S           4.775582434195377        2.757176863158960        8.352391211314920        0.000934596416518        0.049121719165085        0.896071760875499
S           4.775582434195377        2.757176863158960       11.474390682781470        0.000269708842071       -0.051697451462384        1.190170612647588
Mo          3.183010273898652        3.676646488819681        9.999991198951946       -0.090111549619953       -0.041831867116242       -0.052791713456525
S           3.183007725783196        5.515590836372038        8.525594263237879       -0.000587497334730       -0.000654346046778       -1.127419983758484
S           3.183011547956380        5.515590836372038       11.647589912531243       -0.000657945592812        0.000583126457404       -0.840796103545525
Mo          1.590438113601927        6.435060462032760        9.999991198951946        0.008365859202387        0.091710262279626       -0.028760372806533
S           1.590439387659655        8.274006083642846        8.439000381622771        0.000570785156718       -0.000149638270815       -0.059477613103057
S           1.590436839544199        8.274004809585115       11.560999853089319        0.000405206039184       -0.000482082058039        0.059274495862603
Mo         -0.002132772637069        9.193474435245838        9.999991198951946        0.081050463812266       -0.047126028000019        0.000001285552155
S          -0.002132772637069       11.032421330913650        8.352387389141736        0.056342922728864       -0.016295402003444        0.866709749660533
S          -0.002134046694798       11.032421330913650       11.474380490319644       -0.062206068996343        0.014192238678239        1.167828230418533
Mo          7.960726754788827        0.918231241548875        9.999991198951946        0.008984724009693        0.008853597689907        0.744269391562835
S           7.960724206673371        2.757176863158960        8.525594263237879        0.006199960932029       -0.026756454107676       -1.161903120537194
S           7.960728028846555        2.757176863158960       11.647589912531243       -0.015985583934144        0.023077203840722       -0.871890781954691
Mo          6.368154594492102        3.676646488819681        9.999991198951946       -0.004943462255956        0.089682946531552       -0.023371852394595
S           6.368155868549830        5.515590836372038        8.439000381622771       -0.000214430099416       -0.001334403136652       -0.060411438188283
S           6.368153320434374        5.515590836372038       11.560999853089319        0.001030498607264        0.000796528115096        0.060209606499984
Mo          4.775582434195377        6.435060462032760        9.999991198951946        0.077176323838649       -0.044187512884644        0.000009513085945
S           4.775582434195377        8.274004809585115        8.352387389141736       -0.000866719262746        0.000230113835704        0.840844954527407
S           4.775582434195377        8.274006083642846       11.474380490319644        0.000234998933892        0.000816325618279        1.127509458188456
Mo          3.183010273898652        9.193474435245838        9.999991198951946       -0.074902439187290       -0.053191520176659        0.028843676586162
S           3.183007725783196       11.032421330913650        8.525590441064695       -0.002419666265710        0.030391481380506       -1.186511674104679
S           3.183011547956380       11.032421330913650       11.647589912531243       -0.001207133473330       -0.032562007638621       -0.899082781132403
Mo         11.145871075382276        0.918231241548875        9.999991198951946        0.072203808103995        0.040532945219062        0.769271324089680
S          11.145871075382276        2.757176863158960        8.439000381622771       -0.027176572551855       -0.047322717479699       -0.060676261932165
S          11.145871075382276        2.757175589101232       11.560999853089319        0.027377118687999        0.047194933595515        0.060457975176285
Mo          9.553300189143279        3.676646488819681        9.999991198951946        0.086444897764115       -0.049536181179784        0.000008998865083
S           9.553300189143279        5.515590836372038        8.352387389141736       -0.027989812844963        0.002251516043866        0.871940147157434
S           9.553298915085552        5.515590836372038       11.474380490319644        0.026252517663006        0.007992277746210        1.162021905556295
Mo          7.960726754788827        6.435060462032760        9.999991198951946       -0.079807591989034       -0.039944933663469        0.023458498609827
S           7.960724206673371        8.274004809585115        8.525590441064695        0.044915649625106        0.025596628953642       -1.190144130273199
S           7.960728028846555        8.274006083642846       11.647589912531243       -0.042088720436765       -0.025413566326802       -0.896059933795675
Mo          6.368154594492102        9.193474435245838        9.999991198951946       -0.008451734086325        0.098853047161963        0.052855219732971
S           6.368155868549830       11.032421330913650        8.439006751911410       -0.016209527119505        0.008222905802776       -0.088220759510716
S           6.368153320434374       11.032421330913650       11.560999853089319        0.014568905459587       -0.010949047702183        0.034523246005939
