# total energy = -9684.655162013538 eV 

 CRYSTAL
 PRIMVEC
        8.185842864781000        0.000000000000000        0.000000000000000
       -4.092921432390500        7.089144566971965        0.000000000000000
        0.000000000000000        0.000000000000000       20.000036021847581
 PRIMCOORD
12 1
Mo          2.128503326307517        1.122442773618771        9.930560315631839       -0.569691666055391       -0.198517534844018       -0.621836489667635
Mo         -0.018376398647147        4.769768668249203        9.844243058375582       -0.287269227394654        0.031797618327394       -0.247037358490239
Mo          6.108299684643890        1.158489951258120       10.196276049359776        0.332338114836609        0.202635415506180        0.428856856395939
Mo          4.034778209106246        4.788886704259899        9.961474151210684        0.623662487948272        0.148903706314086       -0.052929010426655
S           2.044415892647628        3.492497225517392        8.737075067542493       -0.254990812561376       -0.004528228909965        0.180473267689224
S           2.039844099407647        3.568947267784441       11.100767482366606        0.201652482328642        0.282657437594629        0.301288687863291
S          -0.055268355270142        7.149976839637299        8.836808921254125       -0.091417927719631       -0.359222609938900       -0.484032497768271
S           0.032188371312892        7.053099845085476       11.261899250485527        0.420323875413432        0.135766905954914        0.475993168813197
S           6.066804009993742        3.548833833281388        8.620687935106751        0.055356132894862        0.380879021538169        0.465411274806416
S           6.252211713712458        3.477181513517387       11.262594228544748       -0.092566440014703       -0.353755156624659       -0.220835491582132
S           4.128387415186451        7.155357394152319        8.794073909994248        0.141901817947911       -0.208826120462694        0.122361168084964
S           4.139762462431349        7.125058315372619       11.427761617196007       -0.479298837623974       -0.057790197344705       -0.347713832828530
