# total energy = -9523.503538775056 eV 

 CRYSTAL
 PRIMVEC
        4.204419078754800        0.000000000000000        0.000000000000000
       -2.102209539377400        3.641132032678625        0.000000000000000
        0.000000000000000        0.000000000000000       20.000118839462914
 PRIMCOORD
12 1
Mo          1.045228673584232        0.588035097657541        9.944616586223733        1.602200876889732        5.299790573773314        6.307097820165527
Mo          0.039407599583261        2.410076024209681       10.121764738804172       -0.886155782884889       -9.618730821610027      -12.008789021422253
Mo          3.131529952493347        0.601715436455993        9.951402098174935        1.806846895965973        3.583227748526463       -1.242856653716991
Mo          2.090790337159502        2.452104658646637        9.927961200485152        1.035354651973711       -6.975128569631404        9.792652658408109
S           1.028147380192975        1.800815337274954        8.665227837351146       -2.758945847961124        3.551340655769097      -46.409293335838569
S           1.052791582623096        1.831600514211505       11.604469103719550        3.532422213149059       -3.144134040322085       28.663122071576257
S           0.006493725267137        3.640950822216331        8.519472400264137       -0.468400440676689       -4.594383423849199      -34.776070406009246
S           0.002914923747301        3.632218664231665       11.241057617995933       -1.859635266986896        9.310961151113673       55.509661503608037
S           3.185078695206092        1.797468199246357        8.646447538210165        3.384945983947631        5.460396147131417      -42.439059624204297
S           3.139147939422144        1.825845925818413       11.415793695350889       -4.966948265381603       -2.455477377864203       37.251667189316478
S           2.129242692728070        3.656548796556604        8.582739237235515       -1.292296932706029       -1.169982815829929      -44.086612210010038
S           2.068470758038024        3.644297539803020       11.304531312385985        0.870612171781556        0.752121287013745       43.438479751016565
