# total energy = -9663.718749612717 eV 

 CRYSTAL
 PRIMVEC
        5.956207443844399        0.000000000000000        0.000000000000000
       -2.978103721922200        5.158224551555346        0.000000000000000
        0.000000000000000        0.000000000000000       19.999943953578928
 PRIMCOORD
12 1
Mo          1.509336321031856        0.887685163255583        9.860661645264642       -1.095210731631133       -7.917529830391826        7.136689822461364
Mo         -0.010427532371938        3.442331125716176        9.893483326383947        0.838028823977166        0.181293964184829        7.208716481478431
Mo          4.467782175906392        0.908044671540132       10.119918677914345       -0.493092298023803        1.829071778728082       -0.808585822976450
Mo          2.947506684283171        3.435982999822527       10.155478427595586        6.168055841541120       -2.085593426795358       -4.337680255817669
S           1.542519543943002        2.552598813962144        9.031523618699072        1.269347255639060        5.996356981529068      -21.363173038998916
S           1.464757086418403        2.540491631091041       11.143516751968782       -3.532727146120171       -1.488797693329642       16.878506606461212
S           0.041574327958034        5.183319840378496        8.970119884918992        3.036752383054941        1.108443948401912      -18.429245287932886
S           0.075624774673004        5.116988536180123       11.218682898668609       -4.365763399749069       -0.585453306804174       13.573908660628483
S           4.511912908099324        2.570669947346768        8.936663272086173       -6.201997503752240       -0.570490508164365      -16.831310387313547
S           4.497426815975150        2.614050197401776       11.335566917925869        1.667501527033039        1.493166513772415       12.414397952651317
S           2.937416868873299        5.190948550872571        8.851854621155505       -2.176439798026978       -2.734270959902453      -14.492895645773201
S           2.946030736078586        5.128042661575154       11.052596436579988        4.885544788947637        4.773802795881942       19.050671172242286
