# total energy = -9694.114719651965 eV 

 CRYSTAL
 PRIMVEC
        7.039168683922899        0.000000000000000        0.000000000000000
       -3.519584341961449        6.096096059494329        0.000000000000000
        0.000000000000000        0.000000000000000       19.999981709846463
 PRIMCOORD
12 1
Mo          1.805718523142111        1.008923343549801       10.009157260383436       -1.584921770377457        0.938273095681022        0.137263545773498
Mo          0.028669830132750        4.021972626600500        9.958463983189297        1.007750504775179       -0.580362520271281        0.267762516108592
Mo          5.180472673348715        1.069767805903025        9.887588705461484        2.230486467496990       -0.944857693817758       -0.145019539033661
Mo          3.471484294510468        4.096265420724359       10.137732603813369        0.039615060980555       -0.720340123753932       -0.717031369617983
S           1.795780624794149        3.019378903531283        8.613549151769094        0.342144563783631        0.092890399157705       -1.174641142617956
S           1.715647432413239        3.049239761005353       11.410148221290376        0.342815364897991       -0.256125955114038        1.641669384924643
S          -0.008203447184244        6.036322958614797        8.865451434458222       -0.098537829773613        0.224097451619647       -5.290858814512397
S           0.040693434161758        6.047279424671324       11.186381495830886       -0.271629456990143        0.101473773784679        5.052436455232138
S           5.322367531762365        3.087487084049447        8.819662346086172       -1.201772206623533        0.383504119038211       -3.978880078316827
S           5.326161643682999        3.019171248055108       11.248408538523011       -0.535331428062677        0.266899653502310        3.983716839743937
S           3.468562335589771        6.074921536176220        8.708209076563017        0.317368374215165       -0.000658974034536       -2.087243818651653
S           3.557364264204932        6.129333606186076       11.335240907740410       -0.587987901432520        0.495207031318401        2.310825763857237
