# total energy = -9501.3776546155 eV 

 CRYSTAL
 PRIMVEC
        3.822194351802100        0.000000000000000        0.000000000000000
       -1.911097175901050        3.310115863519414        0.000000000000000
        0.000000000000000        0.000000000000000       20.000094431321056
 PRIMCOORD
12 1
Mo          0.944406891415022        0.555669468206684       10.193234295880837        8.648117861702728        1.794244628192755       -9.428234617990917
Mo         -0.019239779708666        2.186914746935228        9.957869300988392        4.959895469150100        0.799600841856326        4.678825945577044
Mo          2.854513736759520        0.525416799912170        9.935625276519209        1.294257399742054        1.286779857078614       -1.663294686161767
Mo          1.933776930526338        2.202614410235256        9.890605560346510       -4.632187913174976        0.562553252050379       -5.075376619213162
S           0.955404491223462        1.666779837397814        8.379518605455567       -0.350089790320977       -7.155543216142370      -27.806286390906088
S           0.978876586737879        1.653714048225613       11.674543299015760       -1.131987550564385        6.686032572624821       28.639637861923333
S           0.051693649730383        3.281963491021215        8.462646363754605       -8.371522573849138        3.517773603455877      -32.346269618442712
S          -0.011543409161878        3.311843877585863       11.783610379283303        3.182956429844008       -3.416001067350429       25.297513620251120
S           2.867972447511085        1.678115701406388        8.264153313335123       -0.062124050768868       -0.282891150976366      -27.287773584573845
S           2.836118279783167        1.665020099118244       11.533717988098529        0.431702811756171        0.483497708071887       28.589532438249421
S           1.884488587701544        3.329553250676068        8.204381838061643        4.585327737360563        1.884068471240470      -22.530482677678211
S           1.887328095885498        3.339755069620463       11.494123876808210       -8.554345830877281       -6.160115242991531       38.932208071855356
