# total energy = -9684.664329260782 eV 

 CRYSTAL
 PRIMVEC
        7.803618137828300        0.000000000000000        0.000000000000000
       -3.901809068914150        6.758128397812754        0.000000000000000
        0.000000000000000        0.000000000000000       20.000017783330357
 PRIMCOORD
12 1
Mo          1.921988227447352        1.080309484146536       10.190382057946568       -0.074525001074649        0.045626559966695       -0.034618119754961
Mo         -0.047851786421163        4.525931522512264        9.835482089018088        0.181213745730372       -0.039406801531482        0.508267212769149
Mo          5.832111271125545        1.129102386915122        9.803140774007673        0.077879777977739       -0.180161135626045        0.463984311914621
Mo          3.914749808872111        4.544265342965278       10.157525704139056       -0.118986336568260        0.064754290477529       -0.086524601997711
S           1.939011820415025        3.378468002480647        8.400646429251875       -0.304889776559235        0.150237595229876        2.624924978942820
S           1.919313147149705        3.423534677588419       11.760882058315300        0.247653137972375       -0.248266603460631       -2.722690963202708
S          -0.015686052818849        6.747265761364896        8.226662421783551        0.249928822396750       -0.141751151235372        3.025055143998681
S           0.031088053937480        6.709293355506223       11.816387633406045       -0.505623603318078        0.232658971859990       -3.476670901521821
S           5.791063459358754        3.424215153090037        8.166880463953277        0.356607025524803       -0.194341547224460        3.052936970462643
S           5.870387237729778        3.428343267084949       11.656960495212026       -0.307074701001484        0.199499439579832       -3.093575073847965
S           3.862093334763486        6.726854617763594        8.438571233039905       -0.149514857808464        0.176690401918595        2.468524189572541
S           3.908428878180470        6.699088564067386       11.757187045127038        0.347331509617701       -0.065540534175387       -2.729612890224856
