# total energy = -9698.194009570447 eV 

 CRYSTAL
 PRIMVEC
        6.656943956970200        0.000000000000000        0.000000000000000
       -3.328471978485100        5.765079890335118        0.000000000000000
        0.000000000000000        0.000000000000000       19.999962657666302
 PRIMCOORD
12 1
Mo          1.635219701922908        0.958952082139033        9.887867741487442        0.433598744074027       -0.043486115629001        1.346566259809247
Mo          0.082088773016587        3.786612181325329       10.167696374885058       -0.854952346763430        0.700094219978877       -3.194213495842474
Mo          4.950455013043968        0.922063958590274       10.009404233004243        0.759524524762639        0.420207918609072       -1.188150238881150
Mo          3.285212493875125        3.856868236458401        9.972254491557974        0.129197734444035        0.035538060876915       -0.266210854657784
S           1.606172792661064        2.895580898379263        8.340413188693228        0.308259980088183       -0.077248057648885        2.148264608561297
S           1.642150911970906        2.924458055570204       11.764677259330339        0.540990685758409       -0.587144064998128       -2.226924973807413
S           0.057945368673447        5.754312949179115        8.279973463119106       -0.502936285093745       -0.148918618719081        2.511395297050700
S           0.045643336240966        5.730814602705404       11.604114433865799       -0.613233831758340        0.336092955570263       -1.172485014543975
S           4.990456589281403        2.895666107261913        8.221109436179596       -0.138602062677046       -0.098270434925421        2.961280958483949
S           4.964558414511206        2.868535732165280       11.476415609328033       -0.263455145058817       -0.111339358130821       -0.044459535720594
S           3.281406053320529        5.790622584298013        8.350562365450026        0.041280879462707       -0.241799247680410        1.729678799661115
S           3.295011515379785        5.794262601253683       11.709187637282616        0.160326865650948       -0.183727257303380       -2.604741553002487
