# total energy = -9685.740569774272 eV 

 CRYSTAL
 PRIMVEC
        7.039168683922899        0.000000000000000        0.000000000000000
       -3.519584341961449        6.096096059494329        0.000000000000000
        0.000000000000000        0.000000000000000       19.999981709846463
 PRIMCOORD
12 1
Mo          1.784879768170226        0.993094364930263        9.824568436068059       -0.252569346522649       -0.082718596288297        0.539319467957207
Mo         -0.018771351129417        4.069643284761763        9.895587312837025       -0.029426803043566        0.070714367377478        0.543537621687441
Mo          5.371479811670095        0.954461295442289        9.959858442505583       -0.468830329317244        0.126355121519406        0.527151202591439
Mo          3.549269220218421        4.029695298563632        9.825548992265729       -0.086339225376993        0.281948327026057        0.182934071623886
S           1.767242427115789        3.031860757441615        7.871101985751617        0.024606496684037        0.015294728206170        4.241457962585229
S           1.722036885827636        3.079123847736079       12.085738067064822        0.006537546927871       -0.011287662139750       -4.340148515954830
S          -0.070660583082955        6.112480428523027        8.169914696384142        0.349373480660339       -0.294648296763038        3.326444619150907
S           0.006478146939814        6.095081011370107       11.968181838292704        0.138002995372922       -0.091233065319775       -4.364349549489252
S           5.248717413739349        3.005229470559730        8.088458140290657        0.216748721282115        0.134682157046718        3.844669718910910
S           5.264521051351624        2.998125541523915       12.180989985945061        0.131527412058911       -0.024497481861313       -4.299288012046732
S           3.564818039924338        6.041475630091429        7.935676503590451       -0.005115469134264       -0.011746347148572        4.113337263736461
S           3.537491987093349        6.127062066451774       11.825761857895236       -0.024515479591479       -0.112863508765517       -4.315065593642235
