# total energy = -9663.261202095831 eV 

 CRYSTAL
 PRIMVEC
        4.745873239931600        0.000000000000000        0.000000000000000
       -2.372936619965800        4.110044872611764        0.000000000000000
        0.000000000000000        0.000000000000000       20.000016294860590
 PRIMCOORD
12 1
Mo          1.153821447965411        0.702526395246511        9.996865904758137        0.871544968425057        0.220083186461160        1.592407283464257
Mo         -0.048663709614935        2.766475819116704       10.037105689372192        0.256933538977665        0.353156860651829        2.929216973750087
Mo          3.540061225210063        0.708572163166860        9.842581362426552       -1.603268399399054        0.569714805994177       -1.127419212427191
Mo          2.321785598185818        2.778276432927794       10.090612088041153       -0.146538804570170       -0.877517900846553        3.910351149602460
S           1.217607882659387        2.072843190321825        8.164999174067079       -0.777741313016603        0.285286905971997       -3.738051936734131
S           1.139479419034337        2.086394082183802       12.136065894720685        0.042306235861353       -0.234380069084797        1.715568322099919
S          -0.027615761795838        4.133242226421226        8.036286345926893        0.222641435249154       -0.722318074299262       -3.487067933128745
S          -0.016288311546769        4.069672678134314       12.106699854873961       -0.080408201955743        0.378066490533961        2.622908461832846
S           3.522285556989899        2.081848959381919        8.107469698652627        0.835190067709001        0.490377468983358       -3.465174722822567
S           3.498880808519853        2.092911115316876       11.923127105016787        0.281615369017972       -0.650102182005012        1.756582578045727
S           2.404579255205720        4.095504940766586        8.217039572492224        0.075832664726482       -0.157623092359034       -4.587842534485726
S           2.351260318529737        4.114687760402389       12.050606480701914        0.021892696085316        0.345255342887746        1.878521056582203
