# total energy = -9553.997730117382 eV 

 CRYSTAL
 PRIMVEC
        4.554734417592800        0.000000000000000        0.000000000000000
       -2.277367208796400        3.944513873995805        0.000000000000000
        0.000000000000000        0.000000000000000       19.999888929728577
 PRIMCOORD
12 1
Mo          1.159001819161640        0.661037260020637        9.937799212997211       -0.989475352453388        2.001693150966396        8.164212119376918
Mo         -0.033589344435980        2.643265421605533        9.860851529746400       -0.652747848339530        0.265117363994936       18.009876577770449
Mo          3.424939832883974        0.657960081448111        9.931244039223413       -8.267111056280376       10.358099688358877       21.660238945144211
Mo          2.263457960831955        2.645777357636836       10.085250085771385       15.712322854359064       -2.886441511352243      -12.747205551134847
S           1.116591320579108        2.001377176023340        8.646027341036183        6.885054815244803        0.561727156235724      -36.677870755230899
S           1.151625426772348        1.985360452443875       11.091869165731481      -13.949433100331600       -3.118218080213198       52.046682760976246
S          -0.036585904209314        3.979077931597149        8.687912223266926        3.495582145049792        2.178549389112957      -45.728113444712832
S          -0.014694028704596        3.976657090254199       11.249186048727603        2.007805694351900       -4.097911409210504       35.545709398015191
S           3.417889104005540        2.004635633025686        8.692599955929513      -10.207293107745299       -1.588762743105482      -41.453600593792842
S           3.453375039853007        1.966074340499462       11.427556280622165        3.238611325059639       -0.844120798528194       25.576586167106957
S           2.254635440265078        3.972444416391367        8.892262204805993        3.279426320421457       -9.274318286714950      -56.197191765267902
S           2.318050096614339        3.916785106334942       11.383093874184505       -0.552742946446892        6.444585823345249       31.800676398859796
