# total energy = -9679.542241362538 eV 

 CRYSTAL
 PRIMVEC
        6.911795720088600        0.000000000000000        0.000000000000000
       -3.455897860044300        5.985787888489730        0.000000000000000
        0.000000000000000        0.000000000000000       20.000075772584175
 PRIMCOORD
12 1
Mo          1.718967742663467        0.978255477806164        9.955425700816775        0.252180338440615       -0.175375024953834       -0.136865538826381
Mo         -0.000553634837179        4.043533202729656       10.168608980929756       -0.009294284968562        0.091910294194908        0.522048588978723
Mo          5.221341899488786        0.961621550226199        9.827343905507385       -0.281948069915626       -0.064725751219694       -0.596599043986036
Mo          3.484681342141037        3.971780469000273        9.867240172762880        0.061390771819787        0.078232533489008       -0.746170723199742
S           1.750320339229361        2.984979938145364        7.728268177833795        0.367474569220374       -0.097689622461896        4.326798313937966
S           1.684196571934417        3.045637857384861       12.342322425866296       -0.228093204827106       -0.014042857517854       -4.281599585728379
S           0.079159414023031        5.929007486649201        7.859050411731022        0.020381658082598        0.415370385850669        4.465654144610363
S           0.060955817635033        5.926918050803019       11.993200712248901       -0.266840518103191       -0.128254139162433       -4.455401094844773
S           5.183510876794454        3.049038460879145        7.942079048998159       -0.295944647555909       -0.287014430957578        4.463377174633833
S           5.179804771929342        2.972058336046658       12.323030912831957        0.311514483923200        0.284267206002833       -4.181326774766687
S           3.453525731753166        6.029070244468497        7.713975275464223       -0.052933124193550       -0.117730609223480        4.635254469284966
S           3.514297004442473        5.997322984366986       12.337231888318451        0.122111770966939        0.015051501738488       -4.015169930093853
