# total energy = -9047.355142666514 eV 

 CRYSTAL
 PRIMVEC
        3.631055529463300        0.000000000000000        0.000000000000000
       -1.815527764731650        3.144584864903454        0.000000000000000
        0.000000000000000        0.000000000000000       19.999933739505504
 PRIMCOORD
12 1
Mo          0.897761776804365        0.502225088291081       10.144856878544926       50.302707335801927       38.872373075253272      -66.714634357658468
Mo         -0.001397593273290        2.078817779806351       10.189266866303580       56.434999373507750       31.925119132993768      -93.364395349801200
Mo          2.697855013796925        0.507745382012524        9.960805572761938      -10.759679956245320      -10.236263796884352      -19.015782058093098
Mo          1.817585483900197        2.094890647107521       10.093392839209184      -60.466707160741436      -21.731247446854702     -102.921703775008439
S           0.890533797667416        1.567639597896273        9.013860422599885       -5.111021123808491       -0.218034016326455     -112.376434908461320
S           0.886927070210000        1.599668049405010       11.153277251243003       15.470901559012157       -6.836330331695541      142.257772941383223
S           0.005242154867886        3.163448198379016        8.908530763801213      -17.697027947821027      -13.914381749500482     -108.666599555972255
S          -0.009388820282533        3.132294105041774       11.126413976224928       19.354626352385001       18.940261782540226      141.535807622595229
S           2.748976281490687        1.541410305173642        8.835446693631940        3.800088827066906       15.495843070587728      -97.301507324388666
S           2.691314030366151        1.596447303150376       10.830744749677343      -13.915289349321752      -61.764973426322925      223.631628196820003
S           1.825324352550142        3.140859765035778        8.928328367864507       13.572155424599806       -5.112159865907188     -114.377239485778347
S           1.844547886734226        3.113981239584479       10.887356173331652      -50.985753848656387       14.579793829227089      207.313088054363362
