# total energy = -38803.43041036447 eV 

 CRYSTAL
 PRIMVEC
       12.740577282373799        0.000000000000000        0.000000000000000
       -6.370288641186900       11.033658440967770        0.000000000000000
        0.000000000000000        0.000000000000000       19.999979849788435
 PRIMCOORD
48 1
Mo          1.590438113601927        0.918231241548875        9.997565393037382       -0.036221460402391        0.000160179798484        0.551964158951532
S           1.627909425447117        2.692244511039342        8.438994011334129       -0.464730960606111        0.802650171567442       -0.119044186415224
S           1.552965527699009        2.822109215278578       11.560989660627493        0.497381414232980       -0.747309979519299        0.136927759550672
Mo         -0.002134046694798        3.676646488819681       10.002422101097423       -0.035639619497142       -0.052837479113235        0.772722260293947
S           0.012560935142692        5.478102961776381        8.494748051579526       -0.252245644490078        0.425681799684086       -0.836167344457058
S          -0.016830302590016        5.553078710967695       11.616750071161530        0.231271861084992       -0.336395060326635       -0.610720834406194
Mo         -1.594706206991522        6.435060462032760       10.005002067997104        0.001609511297773        0.001838596691753        0.729594042384834
S          -1.616570311665804        8.299121583639588        8.498208392369417        0.235756124111264       -0.329308839739107       -0.837918266491855
S          -1.572842102317241        8.248890583646102       11.620210411951422       -0.172021019382037        0.267512861880136       -0.614380544280395
Mo         -3.187277093230519        9.193475709303566       10.002882035937319       -0.102098295021467        0.000692141280129        0.042084092449008
S          -3.225195599338321       11.096580329992229        8.446131282727714        0.513730295206063       -0.732823606508049       -0.174071217958465
S          -3.149361135238175       10.968261057777344       11.568130754194263       -0.418950134380844        0.713664251414207        0.066408796100719
Mo          4.775582434195377        0.918231241548875       10.004241455533347       -0.121795525136865        0.066701644881576       -0.856981976505383
S           4.739827278110123        2.812258200923846        8.470873483810085        0.486054414197295       -0.617091259553945       -0.495635120185940
S           4.811337590280631        2.702094251336345       11.592870407161177       -0.414420877029156        0.578181452485497       -0.257552146674541
Mo          3.183011547956380        3.676646488819681        9.999991198951946       -0.106617267955917       -0.058682113429685        0.043468117898834
S           3.153190952769256        5.574129966811361        8.407151486532291        0.335303626547234       -0.615938376381547        0.252256700238609
S           3.212829595028048        5.457052979990443       11.529149683941112       -0.339125058882506        0.722379266581829        0.491030529477982
Mo          1.590438113601927        6.435059187975031        9.995747312659189        0.029296962275934       -0.041283707677448        0.055759024940167
S           1.594522742678656        8.281097488958213        8.373293402404384       -0.041612037697776       -0.070082904159054        0.655296841152010
S           1.586353484525198        8.266914678327476       11.495290325755477        0.047395222621228        0.085758670023899        0.853510471466640
Mo         -0.002132772637069        9.193474435245838        9.995482308651715       -0.008936387248674        0.045817593016894        0.027531384946572
S           0.032023440999247       10.981410607590481        8.401058942475860       -0.388151132967276        0.580381032222310        0.319921223684108
S          -0.036291534388842       11.083430780179091       11.523059688000137        0.524895315670247       -0.674408116595264        0.552813394704974
Mo          7.960726754788827        0.918231241548875        9.994987974253158       -0.108493916991451        0.074628102357462        0.284308086561355
S           7.985811677400092        2.725738214656974        8.383218312107353       -0.252651107639693        0.293365315712577        0.531168295964667
S           7.935641832177560        2.788615511660945       11.505220331689358        0.327693929122284       -0.360775042721001        0.748981711541363
Mo          6.368154594492102        3.676646488819681        9.997562844921926       -0.090463790910360       -0.004677095849487       -0.018976549577434
S           6.405629728510476        5.450661032367877        8.438953241486825       -0.401856918710150        0.754519098892823       -0.132165045927677
S           6.330678186416000        5.580521914433928       11.560950164837918        0.455066693727406       -0.720958988561238        0.123766533700560
Mo          4.775582434195377        6.435060462032760       10.002411908635597       -0.045117738423836       -0.076785258873168       -0.013523494447327
S           4.790300349071975        8.236482535430797        8.494726392598146       -0.174894742668811        0.479397053808599       -0.756433543161708
S           4.760864519318779        8.311528357797163       11.616720767833780        0.152263111204933       -0.385023898795581       -0.539701276947174
Mo          3.183010273898652        9.193475709303566       10.004991875535278        0.036560589060820        0.017056191768637       -0.020303496511588
S           3.161165280090294       11.057501157294004        8.498226229177613        0.400514545150138       -0.374116245872781       -0.789812390639470
S           3.204853993649282       11.007340230475570       11.620220604413248       -0.306210295732616        0.299064168414676       -0.571464442476820
Mo         11.145871075382276        0.918231241548875       10.004501363309906       -0.045194871553123       -0.008803461155870        0.388014093107578
S          11.137740038960665        2.757099145637537        8.504698442437059        0.135894432728667        0.027137234655919       -0.898169010660792
S          11.154000837746159        2.757253306622654       11.626700462019064       -0.113732542022142       -0.047487525265941       -0.690673179567855
Mo          9.553298915085552        3.676646488819681       10.004241455533347       -0.023278264197728        0.036865264921501        0.046064676141040
S           9.517551403346667        5.570651789213272        8.470910431484203        0.520581773970129       -0.595265155070246       -0.531540077647826
S           9.589046426824435        5.460529883530803       11.592909902950753       -0.402102459171711        0.551439910782817       -0.298057066856628
Mo          7.960726754788827        6.435060462032760       10.000001391413774       -0.100490840607141       -0.059596141011727        0.031763422640077
S           7.930892144966692        8.332561776832634        8.407187160148682        0.328518225163923       -0.566040955046272        0.248781338543402
S           7.990561364610961        8.215449116395327       11.529180261326591       -0.305664450287700        0.688122901203220        0.484551089507506
Mo          6.368155868549830        9.193474435245838        9.995749860774644        0.011244210476918       -0.044417626720348        0.028439241878271
S           6.372215016471995       11.039550957960866        8.373295950519839       -0.156729633611469       -0.032937388867814        0.696608573866431
S           6.364094172512210       11.025290429808706       11.495290325755477        0.158414735375942        0.040031579878701        0.899555092994066
