# total energy = -9696.14703515363 eV 

 CRYSTAL
 PRIMVEC
        6.338432170797099        0.000000000000000        0.000000000000000
       -3.169216085398550        5.489240720714558        0.000000000000000
        0.000000000000000        0.000000000000000       19.999965611692456
 PRIMCOORD
12 1
Mo          1.546691541453567        0.949013516810774       10.198070854204763        4.080631017146074       -0.396682828397628       -6.871609482368485
Mo          0.020018036481811        3.707803442285869        9.895441776366837       -1.723162592899012       -1.026021800440506        6.171298004075451
Mo          4.773210222892208        0.947155722341513       10.024641208520279       -2.703397653574339        0.860570981011072       -0.565050822776668
Mo          3.128628568836068        3.688940901988794        9.989486362171387        2.401357689031800       -3.020403759192289        0.492817704083544
S           1.554355973634495        2.736484348822844        8.690357501385513        0.915624237818270       -1.416024642731514       -5.384982058186528
S           1.630834862364115        2.699905890608391       11.452336925928952       -1.149733055398410        3.113248392693285        4.602420181699965
S           0.002435859483237        5.480128590625820        8.624120885200682       -0.711935955097333        2.329475011856066       -3.470593839375788
S          -0.062773296846706        5.527514075691482       11.584635851413916        1.516821701861921       -0.992077052904213        1.528608415348153
S           4.808746642857781        2.747699570705852        8.507087439755868       -1.038524566476945       -0.026632526879956       -2.233523713017852
S           4.706856979555435        2.736428570619741       11.523364762991688        0.707818331545602        0.866890241183063        0.960490522240633
S           3.163320075793274        5.437685814966946        8.663946522216234        0.642582473230895        1.926027093799172       -5.405900048628096
S           3.181806747062621        5.532368680891095       11.209461515851567       -2.938081370078093       -2.218368852886121       10.176025136905670
