# total energy = -38803.4530317423 eV 

 CRYSTAL
 PRIMVEC
       12.740577282373799        0.000000000000000        0.000000000000000
       -6.370288641186900       11.033658440967770        0.000000000000000
        0.000000000000000        0.000000000000000       19.999979849788435
 PRIMCOORD
48 1
Mo          1.590438113601927        0.918231241548875        9.958595789303786       -0.134075376429667        0.032649682295576        1.081024149382375
S           1.540621182370117        2.779832157682477        8.438992737276401        0.036041997321585       -0.024677716273411       -0.039094926578735
S           1.640255044833737        2.734521568635443       11.560989660627493       -0.051404088460666        0.033988713419985        0.037278955604906
Mo         -0.002134046694798        3.676646488819681       10.099521862739579        0.186691997682712        0.128755247392363       -1.985631719455121
S           0.003154566935116        5.461119772258977        8.438994011334129       -0.015333551881244        0.088463214647106       -0.035834509203805
S          -0.007420112209254        5.570061900485099       11.560989660627493        0.007175695017500       -0.088989776809700        0.035814197479760
Mo         -1.594706206991522        6.435059187975031        9.941861041043389       -0.005431457853907        0.018130656259595        0.847087595790974
S          -1.550177889389626        8.305819305116932        8.438995285391856       -0.068028077594869       -0.040816280913973       -0.011263236648809
S          -1.639235798651147        8.242191588111028       11.560989660627493        0.076087975384420        0.056649398362561        0.048669461917037
Mo         -3.187277093230519        9.193475709303566        9.958590693072873        0.104641374294034        0.040000212406125        1.124864306074800
S          -3.237094024462329       11.055080447610353        8.438992737276401        0.922459261514755       -0.060123217395183       -0.151183504505357
S          -3.137463984171894       11.009760940159222       11.560989660627493       -1.000326698191809       -0.091616159861896        0.281995635345353
Mo          4.775582434195377        0.918231241548875       10.099521862739579       -0.015537183342560        0.167731646062428       -2.636949776688115
S           4.780871047825291        2.702707073103627        8.438994011334129        0.011579996699744        0.059636250238956       -0.078677077424128
S           4.770296368680921        2.811646653214293       11.560989660627493       -0.010132464973473       -0.064142881872720        0.005847976752052
Mo          3.183011547956380        3.676645214761953        9.941861041043389       -0.003123120404800        0.001695643292143        0.774762174453137
S           3.227539865558277        5.547404057846125        8.438995285391856       -0.093835279991462       -0.066346832486859       -0.028039435158137
S           3.138480682239027        5.483777614897950       11.560989660627493        0.092836663077636        0.062937548172407        0.025909275237682
Mo          1.590438113601927        6.435060462032760        9.958590693072873       -0.004198356227051        0.004703064003014        0.558091357631601
S           1.540622456427846        8.296663926281818        8.438992737276401        0.094750593125659       -0.044380345707860       -0.039368234966839
S           1.640252496718281        8.251348241003871       11.560989660627493       -0.090124919362362        0.049395027553190        0.031584473780133
Mo         -0.002134046694798        9.193474435245838       10.099521862739579       -0.020991009803960       -0.011324943152238       -1.442267133087712
S           0.003150744761931       10.977950266800590        8.438994011334129       -0.409385626349349        0.313376220553739        0.495034510219231
S          -0.007417564093798       11.086891120968984       11.560989660627493        0.631269100048050       -0.380650964585912        0.754739442532151
Mo          7.960726754788827        0.918229967491147        9.941861041043389       -0.002829500292651        0.005202115349496        0.913437770713436
S           8.005255072390725        2.788990084633047        8.438995285391856       -0.113359989007690       -0.061527297458624       -0.018006471921444
S           7.916195889071473        2.725362367627144       11.560989660627493        0.134794771415476        0.062666296667751        0.050904522893322
Mo          6.368155868549830        3.676646488819681        9.958590693072873        0.005605778726094        0.003056271692752        0.525545290839699
S           6.318338937318020        5.538249953068740        8.438992737276401        0.097948532665866       -0.051978473163417       -0.043445749291341
S           6.417968977608456        5.492932993733064       11.560989660627493       -0.096388643681268        0.052668814670529        0.017455741378340
Mo          4.775582434195377        6.435059187975031       10.099521862739579       -0.004516658940572       -0.000928939987037       -1.352543563108070
S           4.780867225652106        8.219535019529783        8.438994011334129       -0.015812548614112        0.085951759957545       -0.074119280814604
S           4.770298916796377        8.328475873698178       11.560989660627493        0.020317123364429       -0.083224589616414       -0.013186679782777
Mo          3.183011547956380        9.193474435245838        9.941866137274301        0.009249804864007        0.009458578533942        0.897007899954603
S           3.227541139616005       11.064230730214554        8.438995285391856       -0.521657524013241       -0.345764935761897       -0.800625941144540
S           3.138478134123571       11.000610657555020       11.560989660627493        0.389730819455059        0.293574346492943       -0.591368903599567
Mo         11.145871075382276        0.918231241548875        9.958590693072873        0.009117392992066        0.097889140156316        1.721582135079937
S          11.096050321977282        2.779834705797934        8.438992737276401        0.466982733760408        0.168555170772774        0.630613725559548
S          11.195690554729543        2.734519020519986       11.560989660627493       -0.636353715930600       -0.322498755754424        0.884110212296218
Mo          9.553298915085552        3.676646488819681       10.099521862739579       -0.009423097294470        0.017075732161390       -1.372337209635076
S           9.558583706542279        5.461119772258977        8.438994011334129       -0.049600973008384        0.064225671431488       -0.106132614793568
S           9.548015397686552        5.570061900485099       11.560989660627493        0.046214314411856       -0.086741860311867       -0.049772465665830
Mo          7.960726754788827        6.435059187975031        9.941866137274301        0.007075421949428        0.011546315233289        0.861638760630824
S           8.005257620506180        8.305815482943746        8.438995285391856       -0.519283880514673       -0.338317732129310       -0.789407184600286
S           7.916194615013746        8.242195410284213       11.560989660627493        0.401994729901141        0.278240537501267       -0.577109559098849
Mo          6.368155868549830        9.193475709303566        9.958584322784231       -0.000643804519109        0.009020462359596        0.749096382793569
S           6.318340211375748       11.055080447610353        8.438992737276401        0.569631502214547       -0.211738924534974       -0.669131953441653
S           6.417967703550727       11.009760940159222       11.560989660627493       -0.430400033202526        0.158546633027022       -0.448599595057616
