# total energy = -9655.710252326318 eV 

 CRYSTAL
 PRIMVEC
        4.745873239931600        0.000000000000000        0.000000000000000
       -2.372936619965800        4.110044872611764        0.000000000000000
        0.000000000000000        0.000000000000000       20.000016294860590
 PRIMCOORD
12 1
Mo          1.138939338659633        0.689720605483203        9.822300822310353        2.283332945475308       -5.941255902181713        5.743660108232667
Mo          0.021870407651577        2.701015989518328        9.849853463992099       -6.992929610318516        3.453512193674487        5.385915883271752
Mo          3.595291799627091        0.654575515792214        9.974514265560030       -2.982928885438997        1.178339419056801        2.852134495218736
Mo          2.348641545675942        2.703841682445383       10.020591474259204        5.554190289453925        2.068061323619025        4.298377841121154
S           1.191502732315819        2.063150218816589        8.406888739709208        2.127028829627069        1.313330108620665      -16.155183487487353
S           1.215226878054914        2.016133327215910       11.627747276674711       -1.853328348115590       -0.754527069316183        7.392204111860162
S          -0.028088450770535        4.108434123234131        8.301854971512338        2.291539910431366        0.368500954060743       -9.153758177198817
S           0.038168685532150        4.111687419340105       11.912073017066337       -0.177547350984965       -0.135324418903242        3.656810182761235
S           3.548307179964445        2.051625814828063        8.062933474994461        0.120253890992864       -0.873150108845504       -4.743715733251686
S           3.543367200509000        2.059259077347169       11.802624637581685        0.909913558036347       -0.090193053626565        3.657520578881961
S           2.378584209121319        4.082252564331401        8.168871806630863       -1.613531733581882       -0.338215402177790       -7.062754632715324
S           2.352292545959421        4.144916600004134       11.821767591882271        0.334006504423070       -0.249077786870292        4.128788829305513
