# total energy = -9667.111531245553 eV 

 CRYSTAL
 PRIMVEC
        4.745873239931600        0.000000000000000        0.000000000000000
       -2.372936619965800        4.110044872611764        0.000000000000000
        0.000000000000000        0.000000000000000       20.000016294860590
 PRIMCOORD
12 1
Mo          1.157667978226375        0.709667036123312       10.156256057521240       -0.131967070895843        0.736106906711334        1.840011056233888
Mo         -0.043111512511539        2.771655939758090        9.853605551375589        0.243061402785964       -0.032727072535293       -6.027173980672804
Mo          3.534254649301007        0.697347698367098       10.137630403403803        0.124823771792643       -0.436641903134800        1.276476927889419
Mo          2.359681870593995        2.730991399489060       10.092006900186369       -0.857855380639334        0.248179700134969        0.210149467850815
S           1.171875224357434        2.092412798626683        7.765238609685948        0.106637322569531       -0.055224492354213       -1.155234704399967
S           1.158008257337678        2.055273493000275       12.310825557971308        0.198342442640538       -0.266162775007196        1.822181733399372
S          -0.043960074646838        4.122402651941222        7.857093562482852       -0.015983269940265        0.290849490145690       -0.509207465615148
S           0.017677903231421        4.082371211162399       12.090804501631458       -0.218057927596534       -0.301695436565061        1.130007543135607
S           3.552581787991651        2.071878828879471        7.763657759309727        0.169635034582782       -0.202832362096290       -1.048966335298855
S           3.559430083076872        2.083679917277885       12.085893946590101        0.083133572523857        0.098771543155351        1.697640268859917
S           2.340912891104713        4.097232438625920        7.853491919281068       -0.044489617641015        0.055473632361808       -0.719551051841333
S           2.363300598939443        4.072518303728978       12.167041734770395        0.342719719817676       -0.134097487926729        1.483666540459089
