# total energy = -9508.49888841198 eV 

 CRYSTAL
 PRIMVEC
        3.631055529463300        0.000000000000000        0.000000000000000
       -1.815527764731650        3.144584864903454        0.000000000000000
        0.000000000000000        0.000000000000000       19.999933739505504
 PRIMCOORD
12 1
Mo          0.940294508854287        0.492161617891173       10.028692150046338      -15.926970212088992       21.194766735165661       -6.971695888267735
Mo         -0.048534866840124        2.116377781308672       10.117816408017013       23.517574873547087      -17.188979536028619        3.511949537973903
Mo          2.703755479032303        0.514202124955016       10.049079800633166       13.900564377830575       -2.535948057654668       -4.285309946357478
Mo          1.843056975333829        2.094803864880367       10.114121809015783      -21.593825263945305       -1.388989480916684        1.882826884969392
S           0.950099084994943        1.552559461176859        7.796177962472203       -2.405207917735339        2.476594114668900      -11.388367667566589
S           0.926711093224117        1.552761347864297       12.196580448201528       -1.753608838801311        1.410916629799748        9.661234004061491
S           0.025016157070237        3.160793170575873        8.009901527830859        1.998021614012371       -2.815446636494594       -6.612949446846963
S          -0.004237078697331        3.148569222135934       12.219678681741103       -0.457715188276665       -2.669327436147741       11.523421349186037
S           2.745563452398544        1.581838477438686        8.001407762736338        2.478839974283284        0.027090440557485       -6.060281062425047
S           2.730312292963692        1.543228737782797       12.105186417419384        1.377787436550442        1.945873447964524        9.018105942496110
S           1.850873185466552        3.136562047711105        7.912020979450883       -1.923949127296201        0.273090615569256       -8.158112431512961
S           1.810688293921981        3.135693862334010       12.105779005681791        0.788488271920056       -0.729640836483267        7.879178981400273
