# total energy = -9683.811410770546 eV 

 CRYSTAL
 PRIMVEC
        7.994704042442199        0.000000000000000        0.000000000000000
       -3.997352021221099        6.923613568356005        0.000000000000000
        0.000000000000000        0.000000000000000       19.999959362479569
 PRIMCOORD
12 1
Mo          2.072543078610694        1.113046680900930        9.947005173313753       -0.856609423490930        0.447462395621506        0.049402997976549
Mo          0.043062673854211        4.623389313320599       10.047136443034129       -0.323435409054390        0.360168262103949        0.256124926672314
Mo          5.987775098848636        1.167951110382806        9.938924126467654        0.691630401702297       -0.249969702955272       -0.232813238118562
Mo          3.958882304839272        4.619295225380465       10.127018726355807       -0.248672837941539        0.436174476371326        0.335923005575403
S           1.916050744331909        3.502622146725883        8.961777820643389        0.291992603121713       -0.267958691367411       -3.225240811318729
S           1.968088272944166        3.471937673140585       10.964603882122372        0.287874465349120       -0.354180674387889        2.869565553995704
S          -0.007280776971452        6.967256657723698        8.907448210382165       -0.012401721637074       -0.078432565404291       -5.171368798609898
S           0.078340904382295        6.917621537676195       10.807001083452091       -0.082483340243974       -0.505127637296767        5.206297764875883
S           6.057454540871349        3.430203719098228        9.174364995835971        0.138135921465726       -0.058272536513175       -3.385587731583292
S           5.925107012271145        3.512233379925707       11.136226193801477       -0.066523724463356        0.329441508721479        3.355006759815173
S           3.991784509325943        6.975958893073895        9.013832138134134        0.048962053587463        0.041359555254579       -1.681018336609161
S           3.982828042387195        6.920424480913475       11.168468035734243        0.131531011604944       -0.100664390148035        1.623707907328616
