# total energy = -9694.797203372125 eV 

 CRYSTAL
 PRIMVEC
        5.956207443844399        0.000000000000000        0.000000000000000
       -2.978103721922200        5.158224551555346        0.000000000000000
        0.000000000000000        0.000000000000000       19.999943953578928
 PRIMCOORD
12 1
Mo          1.429629757397586        0.907320992335705       10.004768510643991        1.654028683340610       -1.473207288127874       -0.854266890354507
Mo          0.005443973603674        3.442715301096305        9.868685252312245       -1.340566073682070        0.589102475150706        0.947384832243606
Mo          4.473243422511653        0.847140067943846       10.196233777030091       -1.299829754112124        0.632410927471918       -2.019940021140782
Mo          2.905987153433621        3.456170373711949       10.193859632742976        2.104156028578956       -0.639971002583694       -3.762217489029082
S           1.431441635702004        2.589648211125089        8.232245846911727        0.602327207277264       -0.045286659976973        1.927455599353554
S           1.537026133817545        2.561962567684612       11.742280587021339       -1.778769922684917       -0.142996337052483       -0.480763081528258
S          -0.017434414808877        5.172151355800543        8.053044411652502       -0.041427689518782        0.137037545704690        3.643367420989228
S           0.059420912322025        5.134390191848058       12.037304049750585       -0.483754304281979        0.160850085377940       -3.267178093711662
S           4.437768846596860        2.613234792602713        7.966709184753978        0.142942600972414       -0.125472204299509        3.549069085111618
S           4.440904194195300        2.598957167739074       11.889134455273789        0.533380731223027       -0.033882012591139       -2.423763063316438
S           2.976952982644049        5.151870469454253        8.225890573569144       -0.461061480535534        0.143561980000582        2.802194136441492
S           2.978190682550880        5.140074200611719       11.754092937623971        0.368574230533565        0.797852490925838       -0.061342435058768
