# total energy = -9671.356735168816 eV 

 CRYSTAL
 PRIMVEC
        5.956207443844399        0.000000000000000        0.000000000000000
       -2.978103721922200        5.158224551555346        0.000000000000000
        0.000000000000000        0.000000000000000       19.999943953578928
 PRIMCOORD
12 1
Mo          1.532823433845168        0.859059630280467        9.828602358698150       -7.115157338089814       -0.180678441813125        7.158208422869642
Mo         -0.008363110871902        3.470440255505912        9.873728968775694       -1.659238512003034       -4.568037060878896        6.935353071741933
Mo          4.478182905344833        0.864955680029129       10.099880804831766        3.649495648111020       -0.007339731472448       -7.463934322550340
Mo          3.024644931267656        3.441288193792759        9.993333783593298       -0.153093835007346        2.576131846908494       -2.145548493968697
S           1.493002613358602        2.623646838835298        8.945704794985929        2.259628649293490        0.539124321140112      -19.554432524708965
S           1.552088191201539        2.554649536185060       11.194335709500406       -2.468163206527481       -0.469394429602758       12.251315120290972
S          -0.039473573592590        5.130591918361119        8.896768594627304        6.628578418613374        2.976773147501092      -20.171313725040818
S           0.028290794116772        5.184318696366828       11.122752221578052       -3.980469020780124       -2.063327149253866       16.307358409814469
S           4.493452834368617        2.580142699665458        8.617775072991677       -1.263877488330941       -2.135862115592930      -10.414107596196207
S           4.459952741221459        2.606563840265607       11.053991380363335        3.484875552483999        1.501006325033069       18.068788290814975
S           2.943016299491257        5.128739537846083        8.727411579031266       -1.877491586416662        0.822464644039356      -11.654036019215061
S           3.013444283169506        5.143856392338560       11.276658239444012        2.494913232874383        1.009138643991901       10.682349366148097
