# total energy = -9490.230724017336 eV 

 CRYSTAL
 PRIMVEC
        3.822194351802100        0.000000000000000        0.000000000000000
       -1.911097175901050        3.310115863519414        0.000000000000000
        0.000000000000000        0.000000000000000       20.000094431321056
 PRIMCOORD
12 1
Mo          0.991250940951838        0.522674375464752       10.158430540771635      -10.465246860912989       -0.324107495720904      -13.416287368042465
Mo          0.038215063568188        2.185920211964889       10.035212932574849       -1.303491006648911       -1.263583096887499      -13.265607542871349
Mo          2.862043459632570        0.548405387841084       10.178046806623952       10.092874595093370       -6.249811559265493      -21.940505255730969
Mo          1.895817189540851        2.181098896009526       10.061235960599657        0.040689268361082        7.235116323418374      -11.923826108182158
S           0.939693743559815        1.657419665649685        8.337815025102488       -0.986060154599024       -2.678470283072472      -24.602327381288728
S           0.971792531726249        1.647558022002601       11.703090121971064       -1.723226870506751        0.720039304549715       32.668149766500264
S           0.007020606585390        3.326031098580883        8.389275520977412       -0.433292782661191        1.710019621889498      -23.047320666663218
S           0.014103514938715        3.302664495630575       11.587952250414554       -2.406414536987806       -4.921489084305460       43.221904579275346
S           2.833826874269262        1.675639301685856        8.482922340352046        1.711028008999700       -3.172310001119058      -26.893889660327584
S           2.848565255689810        1.657544651404989       11.485285434589102        2.638979149319636        6.495554366735878       46.081415829868583
S           1.910029637018592        3.278556386976019        8.396400091249170        0.054976895009205        3.798001347477989      -22.557893477832668
S           1.886651949704665        3.300279446355051       11.685665502360068        2.779184295533681       -1.348959443700569       35.676187285294951
