# total energy = -9673.799772136617 eV 

 CRYSTAL
 PRIMVEC
        8.376928769394899        0.000000000000000        0.000000000000000
       -4.188464384697450        7.254629737515218        0.000000000000000
        0.000000000000000        0.000000000000000       19.999984452360476
 PRIMCOORD
12 1
Mo          2.045274907541750        1.248363432930305       10.119843459162603        0.019099705473861        0.389129952377919       -0.259620342981136
Mo          0.020811641834685        4.854249280202925        9.964138133354352        0.148096636671321       -0.177234190480063       -0.037145001070379
Mo          6.310440965130410        1.250625203698042       10.197756435953867        0.004323569006925        0.158971636569389        0.260496061108966
Mo          4.227860243007036        4.798068569718102        9.829024973847027       -0.130096078289789       -0.311029059429559       -0.203816837936414
S           2.145843288189844        3.590270414353590        8.188505672892022        0.170928557160912        0.228450845436563        3.069193291680582
S           2.065694509110027        3.688086973900938       11.787998248127840       -0.189470332999603       -0.353138605811231       -3.126318601450840
S           0.021991951098292        7.300129863819063        8.053885076796339       -0.079395958189076       -0.322401310901092        3.224314956656863
S           0.092617837553061        7.199932581115453       11.783679103654341        0.113756710402652        0.232970589702306       -2.949963471534209
S           6.350253994492713        3.615025914252907        8.175793683484466       -0.214490263256614        0.387845428664872        3.125595349808565
S           6.284392905121977        3.586657444975351       11.764705359991662        0.073510957534966       -0.456010546119439       -3.057879404276875
S           4.166672642196746        7.309780923454283        8.214248812693251        0.146769689737166       -0.343202573207008        3.305411957457133
S           4.143120069268715        7.298837303709945       12.102782288959778       -0.063032936142291        0.565647318976482       -3.350268214572688
