# total energy = -9613.82190587221 eV 

 CRYSTAL
 PRIMVEC
        4.363648512978900        0.000000000000000        0.000000000000000
       -2.181824256489450        3.779028703452552        0.000000000000000
        0.000000000000000        0.000000000000000       19.999988775209427
 PRIMCOORD
12 1
Mo          1.096104869975170        0.655499861417218       10.125031681190164        5.976240918521646       -1.663722260808444       -2.813668717864546
Mo          0.046651329887406        2.485034555238045        9.996815469663007       -1.354716146249632        5.396827135740585       -3.372737352244203
Mo          3.289178175966228        0.659170998911187       10.118945700609112       -7.379048285329100       -4.423813278629037      -10.837441463424820
Mo          2.175388747662509        2.520198580415034        9.901972878327964        0.421704044206794       -0.198615493918211       -2.609484983343160
S           1.091083619631285        1.878836503815016        8.242076765908598       -1.510282098050602       -0.193305649298146      -12.722326003173139
S           1.081396756297323        1.856075713171319       11.850108484177598       -0.084733827846115        1.401252362921043       11.557916055934141
S          -0.062448610234092        3.809713007066116        8.262191440094025        1.377216908504155       -0.318184956943875      -10.140673223980766
S          -0.001246258015307        3.751577863387104       11.825764561853392       -0.563367520785211       -1.182798228150408       11.361271570579623
S           3.231160414432214        1.898430158367994        8.245616993947177        2.354748452997999       -1.460265891696227      -11.357056245064129
S           3.238551998648350        1.879755924556701       11.554616606918762       -0.298308263747671        5.069110066679516       20.441834264742255
S           2.205376176608551        3.803257425456016        8.352680419307669       -0.892150055472155        2.514537957848253      -13.241052725383934
S           2.144502407122793        3.807479255392323       11.532144253441771        1.952696130360324       -4.941022020855478       23.733419080333107
