# total energy = -9680.27010634437 eV 

 CRYSTAL
 PRIMVEC
        8.376928769394899        0.000000000000000        0.000000000000000
       -4.188464384697450        7.254629737515218        0.000000000000000
        0.000000000000000        0.000000000000000       19.999984452360476
 PRIMCOORD
12 1
Mo          2.143081414774574        1.153855760246869       10.145866388384727       -0.305790434398868       -0.186992559776497       -0.618115073290005
Mo          0.025856228339614        4.824042075060487       10.187090930244674       -0.009243119992802        0.119826573456618       -0.502375784354265
Mo          6.287596242683393        1.135124947518502       10.068225661778468        0.254947618008975       -0.160448478884790       -0.611855462737995
Mo          4.276654177703008        4.809999829364350       10.188633960523998        0.071597027486943        0.244883544410136       -0.262799256349453
S           2.079939476482383        3.684463952208175        8.362555635012372        0.010503218214908       -0.077229802808287        2.436954885307835
S           2.015406130321596        3.664470736314260       11.568405437366923       -0.043384042787912       -0.020204251885240       -1.800218331945544
S           0.041615744433477        7.198471644738071        8.360425382026314        0.074510860000947        0.093189932809767        2.263138720896876
S           0.029556317777056        7.205845017440892       11.427070732862569       -0.077232373912597       -0.106701343066839       -1.393992335682190
S           6.308598878494021        3.624480116062045        8.541298352629337       -0.058770816528364       -0.119718329965186        1.611509560042427
S           6.275216817347982        3.661256508745443       11.414295916489243       -0.040853561926462        0.338379695743170       -1.055091219985045
S           4.205741800284327        7.300804206584999        8.697128494676249       -0.005939250955041        0.052120398121304        1.405864409831498
S           4.109311622448314        7.259163331365214       11.644293710474626        0.129655133900703       -0.177105378154155       -1.473020111734140
