# total energy = -38802.07285789354 eV 

 CRYSTAL
 PRIMVEC
       12.740577282373799        0.000000000000000        0.000000000000000
       -6.370288641186900       11.033658440967770        0.000000000000000
        0.000000000000000        0.000000000000000       19.999979849788435
 PRIMCOORD
48 1
Mo          1.590438113601927        0.918231241548875       10.009581031472388       -0.001807743440039       -0.001043611239243       -0.775129328148540
S           1.597348602719887        2.761165937906071        8.380420481336143        0.022177574442813        0.012812069884877        0.963167298937297
S           1.583527624483968        2.753186514354121       11.502419952802692       -0.083717984533416       -0.048349873651361        1.280081101910534
Mo         -0.002134046694798        3.676646488819681       10.009581031472388       -0.001542919696156       -0.000817611170434       -0.775127528375523
S           0.004776442423162        5.519579911119149        8.380420481336143        0.022158291160492        0.012810527222291        0.963155728967904
S          -0.009044535812757        5.511601761624926       11.502419952802692       -0.083747809343406       -0.048344217221880        1.280100128082425
Mo         -1.594706206991522        6.435060462032760       10.009581031472388       -0.001243643154525       -0.000717852323224       -0.775124443050351
S          -1.587795717873563        8.277995158389956        8.380420481336143        0.022173460675918        0.012784301958334        0.963155728967904
S          -1.601616696109482        8.270015734838005       11.502419952802692       -0.083741124472201       -0.048355530080842        1.280100128082425
Mo         -3.187277093230519        9.193474435245838       10.009581031472388       -0.001479413419710       -0.000927397324452       -0.775127528375523
S          -3.180367878170288       11.036410405660762        8.380420481336143        0.022184259314018        0.012800242805053        0.963167298937297
S          -3.194188856406207       11.028430982108810       11.502419952802692       -0.083731354275825       -0.048326990823006        1.280081101910534
Mo          4.775582434195377        0.918231241548875       10.057900944873520       -0.117358570429889       -0.068073071920286       -3.515951461831705
S           4.777248901703912        2.758138776743779        8.361653610999207       -0.099597896080437       -0.057503004993329        1.201480900505261
S           4.773915966686843        2.756214949574140       11.483650534350300        0.283204825702130        0.163508350123575        1.732141403368794
Mo          3.183011547956380        3.676646488819681       10.057900944873520       -0.117632393038855       -0.067598960285606       -3.515951461831705
S           3.184676741407187        5.516552749956857        8.361653610999207       -0.099590954098802       -0.057522031165220        1.201490927812069
S           3.181343806390118        5.514628922787218       11.483650534350300        0.283203540149976        0.163496780154182        1.732126748074229
Mo          1.590438113601927        6.435060462032760       10.057900944873520       -0.117405364528323       -0.067521570045889       -3.516002626807465
S           1.592104581110462        8.274967997227664        8.361653610999207       -0.099620264687930       -0.057515603404446        1.201480900505261
S           1.588771646093393        8.273042896000296       11.483650534350300        0.283193512843168        0.163501922362801        1.732144231583534
Mo         -0.002132772637069        9.193474435245838       10.057900944873520       -0.117178078907359       -0.067915206115680       -3.516002626807465
S          -0.000467579186263       11.033380696383013        8.361653610999207       -0.099611008712416       -0.057487321257041        1.201490927812069
S          -0.003800514203332       11.031460691386560       11.483650534350300        0.283194284174461        0.163513235221763        1.732126748074229
Mo          7.960726754788827        0.918231241548875        9.984145742985859       -0.024384096161262       -0.014712115969628        1.027423309399637
S           7.953636623531186        2.753083315678133        8.505922811913894       -0.058016968744807       -0.033480406097989       -1.452185425072200
S           7.967816886046467        2.761269136582058       11.627919735264987        0.000753590673127        0.000446857928998       -1.088498092499781
Mo          6.368154594492102        3.676646488819681        9.984145742985859       -0.024596726487661       -0.014200980432891        1.027489386780392
S           6.361064463234461        5.511497288891211        8.505922811913894       -0.058003599002397       -0.033504060257637       -1.452185425072200
S           6.375244725749742        5.519684383852865       11.627919735264987        0.000763875090365        0.000429117309262       -1.088498092499781
Mo          4.775582434195377        6.435060462032760        9.984145742985859       -0.024933284041780       -0.013761064485529        1.027423309399637
S           4.768492302937736        8.269912536162018        8.505922811913894       -0.057992543253866       -0.033382961244657       -1.452241475146148
S           4.782672565453018        8.278099631123672       11.627919735264987        0.000771331292862        0.000406491591339       -1.088503234708400
Mo          3.183011547956380        9.193474435245838        9.984145742985859       -0.024679516046428       -0.014248802973049        1.027335377632251
S           3.175920142641011       11.028330331548281        8.505922811913894       -0.057906925480358       -0.033531571073749       -1.452241475146148
S           3.190100405156293       11.036511056221293       11.627919735264987        0.000737649826407        0.000464855659165       -1.088503234708400
Mo         11.145871075382276        0.918231241548875        9.943797608790309       -0.073203710569976       -0.042511409985254        3.431337961667276
S          11.144970316568413        2.756657047605839        8.509105408119032        0.237360493200418        0.137024175962280       -1.645720931095619
S          11.146770560138412        2.757696678712080       11.631099783354667       -0.085145461646073       -0.049133032024047       -1.157718905383846
Mo          9.553298915085552        3.676646488819681        9.943797608790309       -0.072980795826339       -0.042342745542548        3.431309422409440
S           9.552398156271689        5.515071020818917        8.509105408119032        0.237360236089987        0.137039859698568       -1.645717845770447
S           9.554199673899415        5.516111925982887       11.631099783354667       -0.085141347879178       -0.049156429073264       -1.157718905383846
Mo          7.960726754788827        6.435060462032760        9.943797608790309       -0.073160258907145       -0.042031899031524        3.431309422409440
S           7.959825995974963        8.273486268089723        8.509105408119032        0.237346609237146        0.137048087232359       -1.645720931095619
S           7.961627513602690        8.274525899195964       11.631099783354667       -0.085123093038580       -0.049171598588691       -1.157718905383846
Mo          6.368154594492102        9.193474435245838        9.943797608790309       -0.073417626448530       -0.042140656743818        3.431337961667276
S           6.367253835678238       11.031900241302802        8.509105408119032        0.236236406396286        0.136391170081271       -1.647132467361557
S           6.369055353305965       11.032941146466772       11.631099783354667       -0.085127721026337       -0.049148458649905       -1.157734589120135
