# total energy = -9675.719343885203 eV 

 CRYSTAL
 PRIMVEC
        8.727297025957800        0.000000000000000        0.000000000000000
       -4.363648512978900        7.558057406905104        0.000000000000000
        0.000000000000000        0.000000000000000       19.999988775209427
 PRIMCOORD
12 1
Mo          2.147762488926839        1.271208484774285       10.131740790778869       -0.290457653848916        0.055760053381891        0.216853622337945
Mo         -0.020090237753755        5.025868829470957        9.947233513434284        0.054615140632852       -0.017563727759341       -0.363875537407877
Mo          6.562893327061864        1.256805826492346       10.018904694800558        0.400124508626381       -0.138666597395215        0.155093125718446
Mo          4.290086999076804        5.106511672179915       10.007574917801460       -0.148167342039833        0.083893333847326       -0.151599509182640
S           2.112895191848733        3.835875698090533        8.554546290436882       -0.164296136484019        0.335754598243128        1.518424271178059
S           2.115476726309011        3.827739239073233       11.504821268277754        0.103673867742354       -0.270375529418380       -1.498986722597924
S          -0.045352271725092        7.511956333095184        8.510635768180480        0.075509734025204       -0.289673981255368        1.841119459301732
S           0.020110310536915        7.531166859308723       11.655796524989203       -0.148115662843212        0.226125024478152       -1.927358154500222
S           6.533874191720852        3.793467143652296        8.464661240177435        0.186707167198138        0.010005195310150        1.459613859643328
S           6.575473725724782        3.843839356626720       11.387781233322038        0.086174931811613       -0.029657173989701       -1.298262151814596
S           4.351807316374081        7.623755626186811        8.492764882060424       -0.158422191578440       -0.104030994130949        1.827863873923459
S           4.244796691160596        7.626788361903332       11.561368916627744        0.002653379647447        0.138429541577875       -1.778886136599708
