# total energy = -9543.280171404147 eV 

 CRYSTAL
 PRIMVEC
        4.363648512978900        0.000000000000000        0.000000000000000
       -2.181824256489450        3.779028703452552        0.000000000000000
        0.000000000000000        0.000000000000000       19.999988775209427
 PRIMCOORD
12 1
Mo          1.117242383372040        0.635875661324650       10.155897512581868       -5.629398947164482        9.789231547013832      -30.418649982634211
Mo         -0.006689909535248        2.555064132033736        9.936351883137471        9.462993634262041       -6.642721292088869       12.663692740725333
Mo          3.282795467286294        0.615809860002567        9.952635273928500       -0.160035816643108       -0.135621895671856        4.559383237993841
Mo          2.239996491180823        2.483162550025977       10.161027854138577       -6.453715814748431       -5.171159253608670      -16.342739890438935
S           1.080470790082869        1.893049343386640        8.613385726985891        5.603574004148153       -1.721655154442328      -29.346477888279161
S           1.084308618950034        1.892434505311161       11.424769263577453       -6.230672001674834        4.059065879749794       38.761129876423631
S           0.001221821583634        3.786284578199933        8.568983421542073       -3.156173493361944        2.888025054496489      -33.611133639497226
S          -0.028222333122542        3.754904709013399       11.262270920237780       10.152970558782872       -4.647526350154409       51.047863758351546
S           3.309647614775761        1.885990269187194        8.779431716566616       -7.680279380455858        2.420086384153794      -51.250789965755139
S           3.250707814310955        1.855436002299316       11.558716254696705        5.985578140932177       -2.659345380776377       29.036224531019791
S           2.189441441333706        3.744006060487383        8.606659599167985        4.118073494985067       -3.031405257422387      -28.900348867352577
S           2.156513349654767        3.772931377385366       11.242000900165291       -6.012914636172086        4.853025461640556       53.801846089443110
