# total energy = -9564.586193205374 eV 

 CRYSTAL
 PRIMVEC
        5.191810907663900        0.000000000000000        0.000000000000000
       -2.595905453831950        4.496238041309629        0.000000000000000
        0.000000000000000        0.000000000000000       20.000080883695549
 PRIMCOORD
12 1
Mo          1.269003189294841        0.736994172137795        9.800250732042326       -1.614852509865693       -5.075879270105677        8.921927358036934
Mo          0.049827366824123        2.955945599113354       10.148617609678938       -4.262999188711431        7.275601188986847      -14.242271082550289
Mo          3.912978062777579        0.772857125163574        9.854911155640393        1.590084804941448      -11.995693872952897        6.385255791629559
Mo          2.547193287990793        3.040608978765720        9.935978167877019        6.273696089859411        5.676757402994084        2.066175932828838
S           1.283308185888727        2.243329055911404        8.908850545967335       -4.726421200113554        7.443668878382533      -43.356496747671230
S           1.340671985426415        2.211453413662710       10.793268675469751        9.748147357030804      -13.844662399490797       51.547719603372038
S          -0.028132865765358        4.484663418072083        8.821121921155083        4.590028230259267       -9.993235047123118      -34.872095238430717
S          -0.023898943970158        4.497367779363136       10.819337796399314       -0.208482363816508       13.302286916951267       41.866538714966687
S           3.911906473006237        2.282768647471472        9.101742415800860        4.530602039242400       10.842035255494679      -46.279790411312995
S           3.891845315659024        2.276490190540835       10.972181075253303      -10.253959422294772       -6.025097299721986       41.985339417803800
S           2.634869994693967        4.466494675800713        8.868949402417574       -6.504435732352328       -2.132792217047338      -45.314610709032614
S           2.586475048499269        4.490144932028395       11.093345481492001        0.838592410041817        4.527010977853264       31.292307370359989
