# total energy = -9497.293411270524 eV 

 CRYSTAL
 PRIMVEC
        4.204419078754800        0.000000000000000        0.000000000000000
       -2.102209539377400        3.641132032678625        0.000000000000000
        0.000000000000000        0.000000000000000       20.000118839462914
 PRIMCOORD
12 1
Mo          1.067062642302114        0.613677429176958        9.859892496483928       -6.815336236566409      -12.381399371500935       21.334098220135324
Mo         -0.002769030405268        2.461356903271345       10.187615611741352       -8.109426771638773      -12.975925076971757      -30.937314998341577
Mo          3.132220318106079        0.572493882974832        9.853701489390462        4.627207427016963        4.791856833233113       20.593969334952575
Mo          2.112200920876153        2.408020063280170        9.907594994467665        5.705489750763642        8.941277746180974       14.503395264442078
S           1.030158353838344        1.803559982049565        8.751244785957665       -8.078139774627255       11.770837945561933      -57.110441845366744
S           1.024953703460753        1.796893455158292       11.287084234534877       12.207202683652165       -8.553796385886333       50.278666739176415
S          -0.011982594374451        3.623492812875617        8.595473161299340       -1.025120114159149       -8.922971483497038      -48.292580705589806
S           0.031732852996902        3.618448350864928       11.253953412194289       -1.390412587152015       21.169264979961042       58.834549319099516
S           3.204934484747420        1.798025705216200        8.672828586161717        5.529403044136928        8.561752153951346      -48.729586419984400
S           3.130015100299272        1.800567696991216       11.368350610024311       -8.089308651747904       -6.649826795958719       42.100387079680274
S           2.063821931862645        3.676393234166418        8.631968780228656        3.718044117218140       -5.768493890537667      -55.111509289097505
S           2.062075416177330        3.674058099810078       11.375450612522606        1.720396855993239        0.017422831243178       32.536367300893843
