# total energy = -9684.857609222423 eV 

 CRYSTAL
 PRIMVEC
        5.828834480010100        0.000000000000000        0.000000000000000
       -2.914417240005050        5.047916380550747        0.000000000000000
        0.000000000000000        0.000000000000000       20.000054246341612
 PRIMCOORD
12 1
Mo          1.448524822394206        0.837830839322172        9.924316974993404       -2.475759791320453       -6.466358963080172        7.037905166674034
Mo          0.004427582671016        3.376292335550706        9.808011326196523       -6.964092361493128       -0.003908592771365       11.936870605896617
Mo          4.371738356513039        0.810551893955724       10.186646002300051        0.449372726123495        1.957973579066089       -7.390048498007041
Mo          2.891987302042523        3.339264081632994       10.114798622732550        9.905840897647920        5.601452843092781       -5.081877656459838
S           1.493320581139980        2.521632485317849        8.862473534702380        3.500755978251883        0.514186666221006      -18.870061636024658
S           1.450051394144521        2.549044910993889       11.176352952833366       -5.143832785675570       -2.007913166512039       15.053930146507934
S          -0.021349272049933        5.044343305014500        8.694248125658257        3.255745678399286        3.972559532592681      -11.665100509500741
S           0.019004331938625        5.094608842036315       11.534073187939169       -2.600496145566572       -2.259527347783694        4.831750859031253
S           4.388880375835300        2.488920483332584        8.494949200001200       -2.300966864382300       -1.441279314811986       -4.226524217424118
S           4.416408212434044        2.511402880805432       11.524347777609274        1.064868615453370        1.896803407996060        4.715964518886649
S           2.900576089648818        5.085818959640460        8.467383475978336       -1.342076083243064       -1.229650690651892       -2.951715422010730
S           2.900489240015066        5.063631501192302       11.498874022281285        2.650640392915562       -0.534337953357470        6.608906642430640
