# total energy = -9697.97070251346 eV 

 CRYSTAL
 PRIMVEC
        5.956207443844399        0.000000000000000        0.000000000000000
       -2.978103721922200        5.158224551555346        0.000000000000000
        0.000000000000000        0.000000000000000       19.999943953578928
 PRIMCOORD
12 1
Mo          1.439471794577795        0.890511979308432       10.114882108899831        1.871787077285082        0.531460887635093       -2.574285022682950
Mo         -0.006863337837542        3.439230324120911        9.800163850636771        0.038928833240339       -0.466933368557665        5.623854874941817
Mo          4.419198583028442        0.863905005036035       10.049634834456239       -0.886699057225496        0.750741375330814       -0.599720107507389
Mo          2.981093738059009        3.463842564520365        9.982514332771556        0.354203042995382       -1.711920953526404        1.275301933219958
S           1.519423158338007        2.585644448481337        8.360431174172936        0.472381024368722       -0.790658541067740       -0.618421806034133
S           1.520074767432363        2.591968153924467       11.776263728592193       -0.410657551651280        0.597361890634678       -1.667406910394448
S           0.008314865591607        5.121954226326055        8.344538821471270       -0.774283691941131        1.788293550157890       -0.570311816414852
S          -0.052589738004680        5.164145021754527       11.685527460013413        0.331134580909312       -0.799477428849468       -0.548404465034972
S           4.510742513336608        2.561743974871423        8.258839121907004       -1.278011105830922       -0.193986220608882        0.388037747267225
S           4.509368416279314        2.534348398733461       11.680360450055877       -0.217378641837953        1.110687751132849       -0.995954278203002
S           2.894381483229290        5.200558295962470        8.503560030290005        1.166434434772331        0.046110441797750       -1.975267855093789
S           2.958077165633762        5.186816729768776       11.564889838825042       -0.667838945084385       -0.861679641189346        2.262577705936534
