# total energy = -9654.823025163612 eV 

 CRYSTAL
 PRIMVEC
        4.554734417592800        0.000000000000000        0.000000000000000
       -2.277367208796400        3.944513873995805        0.000000000000000
        0.000000000000000        0.000000000000000       19.999888929728577
 PRIMCOORD
12 1
Mo          1.115324193464134        0.650602363469931       10.045513671765422        1.238899724184606        0.373088575480258       -0.522744586915316
Mo          0.038188715250865        2.614123775328333       10.137722903629262        1.363913500585724        0.466963707588517        2.063142801074872
Mo          3.431488630029589        0.650043042083451        9.968949497152570       -0.554669732016463       -0.721570654276478       -2.637968448215555
Mo          2.316697340492313        2.598305182696033        9.905289340618202       -0.587202171955524        0.084381072334846       -4.305548136819604
S           1.150010317947870        1.964968906456312        7.779425807280749       -0.258149157095216        0.219001779988567       -2.652123148770874
S           1.105757429293422        2.006371897785673       12.276737777124072        0.193508766538600       -0.332535061426720        3.723378644439577
S          -0.031797511916099        3.952814877471868        8.035885594344613        0.071530950106188       -0.393799849135339       -1.469012531446857
S           0.002459101112058        3.939991022719135       12.009263275818146       -0.397105260835686        0.658939067516906        3.346242122334377
S           3.413068373097961        1.977292651369993        7.783317827840581        0.195128305143180       -0.046322300792857       -2.904710750134122
S           3.412188853881923        1.964072990196372       11.922743362715318       -1.171228001647040        0.204808255758173        4.045415629860007
S           2.260305173668097        3.942392278704090        7.820389722212253       -0.426363913657408        0.229127302980404       -2.443144304712194
S           2.287612172921892        3.971680587429537       11.959821178241734        0.331736476428176       -0.742082153126708        3.757072709305689
