# total energy = -9686.703006922919 eV 

 CRYSTAL
 PRIMVEC
        5.446609753057400        0.000000000000000        0.000000000000000
       -2.723304876528700        4.716900211391535        0.000000000000000
        0.000000000000000        0.000000000000000       20.000032712373070
 PRIMCOORD
12 1
Mo          1.369712331376924        0.784000258362391        9.902197423665525        1.395910636607539       -1.933951237281179        5.867074143532387
Mo          0.066765631674928        3.104829541171840        9.867885960865165       -3.910151631908039        1.722914224222711        4.172099081399742
Mo          4.079229659976734        0.756571131645994        9.984527287370790       -1.291614047401414        2.337785335205366        3.070311464944802
Mo          2.706508076711247        3.143897528269545       10.139978431671825        4.034207157732991        0.512251396007214       -6.966552651206928
S           1.428620683822092        2.317509574164961        8.398899907502189        1.151338452929288        0.990180606365496       -5.797995255606209
S           1.387709563983952        2.376664658031942       11.497456588221434       -3.029105918838364       -2.058291641463629        7.288987643574475
S           0.005181359858084        4.715012416451125        8.392844366778739        0.550840843478693       -0.095934329549772       -5.390280589947631
S           0.028164419033060        4.695426952440106       11.743982672847244       -0.430457111718198       -0.180424673817773        0.153684160556817
S           4.149448442235101        2.319506301300432        8.284857158509746       -1.404171337643665        0.130547821316976       -1.764137510948884
S           4.073863660048023        2.399354144941229       11.589936209201520        2.466900794311497       -1.296365448165447        3.758225335367656
S           2.684107260118872        4.688665531092661        8.523656682539869        0.373040752940100       -1.295332635564304       -7.172580638849547
S           2.741829885620799        4.737493842867845       11.660464903554836        0.093261409509572        1.166621096945203        2.781165074293752
