# total energy = -9669.268830866562 eV 

 CRYSTAL
 PRIMVEC
        8.185842864781000        0.000000000000000        0.000000000000000
       -4.092921432390500        7.089144566971965        0.000000000000000
        0.000000000000000        0.000000000000000       20.000036021847581
 PRIMCOORD
12 1
Mo          2.010487211141683        1.225035942243071        9.943949080221474       -0.166086910635615       -0.272957946586883        0.198307989842790
Mo          0.074227585929261        4.705696438977990        9.958370079596360        0.227477168234540        0.134551287837363       -0.275692316020081
Mo          6.102458267175582        1.143568796884198        9.914024094460695        0.212622098865301       -0.430940222217961       -0.155597319273547
Mo          4.130728566245778        4.655199611513728       10.112244279431366       -0.261119039683168        0.500577296889741        0.380016930263179
S           1.961747065556204        3.596467252911549        7.833520913543680       -0.197773457256836       -0.155992498005923        3.843266924399624
S           1.993325591575670        3.545828810365727       12.150040280954245        0.175975377810112        0.090725015108209       -3.892440065650900
S          -0.018716929710322        7.061541904831924        8.000787152305469        0.169899344105803        0.096107364869804        3.646171724459645
S          -0.002732434348264        7.116797162753482       12.042645296905466        0.092385177160880       -0.007354643877444       -3.680473084163670
S           6.210066901723133        3.523134379607407        7.783132957789521        0.051237995122269       -0.184480590866075        3.694848899689610
S           6.184117779841778        3.480698970196383       12.239573755872074       -0.295099268458932        0.147879635467596       -3.702553727974013
S           4.008391144631625        7.099570056444550        8.095594765781076       -0.054210963035392        0.295103639336258        3.523035882646215
S           4.113655353782703        7.091249965756787       12.037254100794719        0.044692220660607       -0.213218337954684       -3.578891323997991
