# total energy = -9692.112751523779 eV 

 CRYSTAL
 PRIMVEC
        6.911795720088600        0.000000000000000        0.000000000000000
       -3.455897860044300        5.985787888489730        0.000000000000000
        0.000000000000000        0.000000000000000       20.000075772584175
 PRIMCOORD
12 1
Mo          1.728828110437745        1.048334174612142        9.953558824792779        0.123199090979444       -0.373065435541472        0.261930223092828
Mo         -0.036649105626198        3.945740278624839       10.161459419436897        0.493504703155054        0.281588886643584       -0.755393788578929
Mo          5.178622163681635        1.028672189327206       10.033802008384720        0.108170214958880       -0.433173483421229        0.010203427452416
Mo          3.402906504617525        4.037184027181183       10.144922256997011        0.313055346735909       -0.331856804109863       -0.414645848656241
S           1.727098087969007        3.051123058468324        8.185110918928343       -0.060447947869478       -0.363023216329264        4.021126664558198
S           1.763508045463290        2.959948178765491       11.982042309238389       -0.215563185084986        0.197973232061688       -3.954116230049046
S           0.058424026862765        5.940274404852518        8.203736134855266       -0.334619455690465        0.340640467762550        3.715150596428182
S           0.063898169073075        5.955934460415523       11.780564846356951       -0.356958495483917        0.166749998437045       -3.167883845050183
S           5.169100473897640        2.965728513526201        8.335397549168089       -0.054086264476379        0.141752693897958        3.400320416387397
S           5.183324258310011        3.011825352722188       11.873442792525214       -0.142786792051256       -0.008372286963160       -3.285192793166897
S           3.473827749321782        5.940650406539691        8.096382814910420        0.024228030129673        0.412852503400335        4.144375377850817
S           3.404062848041495        6.004857532881454       11.954634965669523        0.102304497587092       -0.032066555838172       -3.975874200268542
