# total energy = -9675.509394358347 eV 

 CRYSTAL
 PRIMVEC
        8.536211121343900        0.000000000000000        0.000000000000000
       -4.268105560671950        7.392572236361851        0.000000000000000
        0.000000000000000        0.000000000000000       20.000043889919510
 PRIMCOORD
12 1
Mo          2.037481770299099        1.293719988054181        9.861206933325573       -0.071230902233265        0.193440118053535        0.249713363855610
Mo          0.029979173458160        4.993515342627092        9.985441242743388        0.048746080825461        0.018210103382759        0.140776959812487
Mo          6.391805624159959        1.164144571337741       10.085201381255198       -0.012457771711022       -0.076941839125619       -0.057546456656160
Mo          4.311331226548210        4.974453983193130        9.997004394328361       -0.001428505554381       -0.146955323468315        0.296665070983443
S           2.114294012453400        3.693487094554237        8.481688633669652       -0.159334933608327       -0.246131558441988        1.808988368745390
S           2.152655745232720        3.743139673783758       11.661364108407957       -0.073351291957344        0.184535098277438       -2.306284165204863
S           0.063788544846467        7.386919557357297        8.333507691193132        0.024204118859594       -0.167651684718402        2.449395430619982
S          -0.074987200216558        7.410128661775119       11.737383336549085        0.444101962288935       -0.158465129020409       -2.653528771496901
S           6.379307757457200        3.767328735238310        8.245469477793151       -0.097245078526776        0.320893101113115        2.551957038638029
S           6.396626876201294        3.737380292140187       11.650002411405447       -0.073408884693877        0.001529035732884       -2.386547613987978
S           4.220602399402783        7.458879817110226        8.269574884378715        0.248765397696682        0.107174169149364        2.690461142240880
S           4.303438645745417        7.396088301722732       11.720371521405360       -0.277360448496111       -0.029635833823931       -2.784050367549919
