# total energy = -9673.793358138435 eV 

 CRYSTAL
 PRIMVEC
        8.536211121343900        0.000000000000000        0.000000000000000
       -4.268105560671950        7.392572236361851        0.000000000000000
        0.000000000000000        0.000000000000000       20.000043889919510
 PRIMCOORD
12 1
Mo          2.053678377280737        1.277921168510798        9.914469476238311        0.115300144319670       -0.251702370149472        0.523612848840648
Mo         -0.040971252519114        4.888652257106942        9.949682200734966        0.102912306645867        0.485393126168881        0.047832310353850
Mo          6.474687112421535        1.202650566085012       10.099575507162427       -0.206433450792234       -0.414585941925828        0.345515024423010
Mo          4.259751170847490        4.983626142043014        9.933779239415903        0.003915534753001        0.177865653698487        0.407644731621359
S           2.122686815227905        3.701640029796232        8.261832540891655       -0.112099119454291       -0.133015824343705        2.708456815524225
S           2.093813934731072        3.766096106352388       11.891550723885004       -0.149897181019293       -0.009227436256514       -3.107658040593048
S           0.056381674456476        7.339486393019325        8.444304297063727       -0.132675924353983       -0.186279592551462        1.837689606152803
S          -0.036936185522055        7.415637078811723       11.572735189198379        0.223302723277568       -0.002159727620015       -2.056753349755230
S           6.443257636693859        3.728648601784164        8.200971062838697        0.169292049267889        0.304643207655950        2.933396046694815
S           6.316756963223328        3.743718428897785       11.921091136091528        0.135628837653492       -0.152013456976477       -3.135011248010969
S           4.219134171089912        7.373570630405739        8.372840844798061        0.125538024569834       -0.009110193899999        2.655217729917839
S           4.313173340908198        7.450102031214149       11.905573157894036       -0.274783687757089        0.190192556200153       -3.159943246500594
