# total energy = -9532.203012186234 eV 

 CRYSTAL
 PRIMVEC
        4.013280256416000        0.000000000000000        0.000000000000000
       -2.006640128208000        3.475601034062666        0.000000000000000
        0.000000000000000        0.000000000000000       19.999977480556058
 PRIMCOORD
12 1
Mo          0.989889621725904        0.605657367320585        9.835555016300049       -5.312460204479442        0.406942048813561       23.383763035309148
Mo          0.013798058849584        2.333661467246006        9.893622767002107        2.222184371681480       -4.237314885100833       17.617721978282784
Mo          2.998177602807188        0.609156145048128        9.899139823370602        7.561918336455677       -4.093023225697204       20.001633439022189
Mo          2.011933243538187        2.305111794157914        9.862353293884242       -3.978683131726717        6.628256773464249       16.946096310771306
S           0.990518101414058        1.741707044032928        8.354398153074159       -0.379625865297698        0.644523914095030      -33.791644959530231
S           1.021704499630616        1.764789024099679       11.706874558166163        1.376796275839114       -0.749924021270810       15.952437771606293
S           0.025935823657088        3.474159463794562        8.568141847578646       -0.745683756043514       -0.111364297842624      -49.136863740799924
S          -0.002453318220747        3.451474397145170       11.604490962888683       -0.654246802151993        1.607564971810729       18.201224588247307
S           2.969074899699761        1.762854623016087        8.386138785294129        1.993526809458430       -0.108656667894245      -33.855058676220764
S           3.053849023868140        1.721045071960796       11.453335577967083       -1.960271117877095        1.137183238153106       26.189032469615285
S           1.988042186171743        3.495878132558208        8.421613373464668       -0.329198796474658       -0.501612166374331      -36.436394181141338
S           2.030967429138316        3.492756603174767       11.738585893440261        0.205743623505984       -0.622576196377490       14.928051964837950
