# total energy = -9696.872345665648 eV 

 CRYSTAL
 PRIMVEC
        6.911795720088600        0.000000000000000        0.000000000000000
       -3.455897860044300        5.985787888489730        0.000000000000000
        0.000000000000000        0.000000000000000       20.000075772584175
 PRIMCOORD
12 1
Mo          1.725855347098535        0.941610519257398        9.827917584552154       -0.534465223020792        0.860007394946420        2.175921463398174
Mo          0.071387790915363        3.954583230069121        9.996202530847009       -1.114082894373599        0.366272835066094       -0.248869527421219
Mo          5.132219131935248        1.051964940903905        9.957630563651483        0.585630198780670       -0.677701444105355        0.148144973432340
Mo          3.437649336984122        4.029287300570982       10.109680392979424       -0.373034582289757        0.115745716696514       -1.982464890277059
S           1.677895087776412        3.049818802615942        8.316855274789807        0.452286558637499       -0.427409067559236        2.047889210537654
S           1.748931759469195        3.027738380008548       11.605270648022353       -0.134132454945338       -0.501489781809197       -1.749498928562509
S          -0.007394930240923        5.939363430176611        8.525320563144255        0.371073601032870       -0.025893848611825       -0.300691420332185
S          -0.001732787187026        5.992169549478088       11.559213206061971       -0.082157324217524       -0.003982126354618       -1.588960203916454
S           5.112458999151086        2.993943846014747        8.272336398556718        0.221256381357604        0.039464137157585        2.467668783168757
S           5.131514128771800        3.019765623645426       11.455605388217842        0.660594601581820       -0.195980112000931       -0.305745954294313
S           3.433620451258883        5.959534123626545        8.308619179009749       -0.078265443624171        0.133904397993082        2.332879925293192
S           3.432521475739388        5.942873240043271       11.773330269776736        0.025296066859856        0.317061641471036       -2.996273431026379
