# total energy = -9675.530800203114 eV 

 CRYSTAL
 PRIMVEC
        7.293967529316399        0.000000000000000        0.000000000000000
       -3.646983764658200        6.316758229576235        0.000000000000000
        0.000000000000000        0.000000000000000       19.999949555872629
 PRIMCOORD
12 1
Mo          1.845281151529427        1.099760353977480        9.865212892658169       -0.107588374053631       -0.158620680831137       -0.402875847348021
Mo         -0.037124106533962        4.164568806315762       10.042098899211622        0.186125069182458        0.117354456662994        0.130145443492532
Mo          5.476248822286752        1.038321077287789       10.073212776501427        0.109401002591858       -0.152397579960322       -0.039778583214642
Mo          3.668891196132502        4.215805281225444       10.150187474631807       -0.127845333577216        0.295118808851684        0.196419256617001
S           1.870020830595362        3.174172013282593        7.812572997031313       -0.160078239864216       -0.380052668613082        4.393395314874143
S           1.736127656849960        3.202269834999026       12.313392977051807        0.195775452097892        0.200461289702031       -4.247343734570633
S           0.031873179309607        6.341873547969930        7.815978550470750       -0.304934513774221        0.097984528126200        4.355069148483961
S           0.007601043562301        6.361743774313293       12.168512170620241        0.244793555759302       -0.076754148511022       -4.330584265033766
S           5.503102293142685        3.125053706543423        7.784133088237755        0.127385877237101        0.033656269632762        4.297577713460025
S           5.542736983300236        3.141519108844102       12.421701830291379       -0.184426854786006        0.045462523511746       -4.273592652687604
S           3.604673647210894        6.347295154034470        7.831044240402554        0.301108710561623        0.217874607859264        4.291762646843135
S           3.693294623295336        6.295340952719903       12.068584086071855       -0.279716351374944       -0.240087663541548       -4.370194440916133
