# total energy = -9042.628445333828 eV 

 CRYSTAL
 PRIMVEC
        3.822194351802100        0.000000000000000        0.000000000000000
       -1.911097175901050        3.310115863519414        0.000000000000000
        0.000000000000000        0.000000000000000       20.000094431321056
 PRIMCOORD
12 1
Mo          1.000269408524915        0.521876683503531       10.031943809745751      -19.758807292280547        1.155085580350014       -9.105665413978411
Mo         -0.033860055323744        2.227991105195175       10.195536021319493       16.040736435577589        9.496415676292203      -59.308119479211392
Mo          2.902059923398762        0.536030651407689        9.814949427566372      -38.996638403189884       12.321385940259770      105.760324288865789
Mo          1.913601477640351        2.233244329112292       10.011796258878533        7.952314300595615        0.742540323914669       -3.135334692933109
S           0.911949963637824        1.677705962171875        9.228339678301285      -20.877869387260006        3.953338213884979     -149.944371582011087
S           0.936423474072413        1.671808316287044       10.967438490590675       25.073798491842300      -16.699389082074411      146.738294753773943
S           0.019378907583072        3.325802913578080        9.039699098262444      -31.469269795114535      -34.317868250576353     -147.067381707211155
S          -0.012778742376380        3.328249882402104       10.936070505984306       35.382265325499354       44.307050980197204      161.647527263507754
S           2.882621771803237        1.624905022737775        9.071193215282424        9.946821729237705       54.210560657567669     -148.842169760651871
S           2.868613811723318        1.652662180339997       10.882329688959100      -43.318712055848636      -55.534895349743600      162.020604783239520
S           1.857365532142286        3.339653017031270        9.099344823341752       75.332366651520601      -34.395428954509278     -186.279512847227920
S           1.908913556267865        3.293423194126788       11.012073311792152      -15.307005743469134       14.761204007326711      127.515804908058783
