# total energy = -9541.654588858231 eV 

 CRYSTAL
 PRIMVEC
        4.013280256416000        0.000000000000000        0.000000000000000
       -2.006640128208000        3.475601034062666        0.000000000000000
        0.000000000000000        0.000000000000000       19.999977480556058
 PRIMCOORD
12 1
Mo          0.979900968495710        0.607303213553741       10.150917374865141        5.314436098141324       -1.339068405421762       -6.031376707777181
Mo          0.017715020379846        2.317117522044982        9.922378722695377       -0.827201903729686        3.981807023462810        2.590137423413860
Mo          3.009529567340486        0.587383698329046       10.093212424698265       -3.273047667739915       -4.312997397335638       -7.642991168875437
Mo          2.004363795646561        2.297873441887442       10.100810366879712       -3.102096227750648        1.572959707577315       -5.518734503914915
S           1.012721173104654        1.753455119327535        8.412150058620039        2.667874762212850       -3.912918397255537      -25.178207181196324
S           1.024996192096928        1.730048866216065       11.819286136820351       -2.219623037568315        1.984776055940905       21.302564139999657
S           0.029702688505760        3.441961718953387        8.397474696706402       -1.600601650009197        5.190025245700793      -23.100984241591107
S          -0.006170017066214        3.497023121415363       11.666464437936284        1.875176564096351       -3.859250194339889       24.851747896363481
S           2.973241888589998        1.759796102132672        8.449375640966451       -1.821164347424086       -2.299029537285060      -25.340535908662680
S           3.025478744407509        1.739860533786951       11.549755438783528        4.361391493981124        1.570668853637514       31.027820441141753
S           2.016986364709040        3.485999844535066        8.441850339157645        1.226135476839887        1.266959985287651      -20.878769787989206
S           2.033353725578781        3.441460460249361       11.568863067412350       -2.601279561049689        0.156067060030900       33.919329084867243
