# total energy = -9630.063506165874 eV 

 CRYSTAL
 PRIMVEC
        4.745873239931600        0.000000000000000        0.000000000000000
       -2.372936619965800        4.110044872611764        0.000000000000000
        0.000000000000000        0.000000000000000       20.000016294860590
 PRIMCOORD
12 1
Mo          1.168945596806425        0.671346957234808        9.960628315047314       -2.122529139974940        0.806015489998201       10.692381043832636
Mo          0.021504975412102        2.759660745144162       10.188911936697885       -2.319323520710703       -8.337586310957066      -15.810360090123609
Mo          3.616392426639151        0.643425561202319       10.146688851656860        1.044274069933942        5.170535246592745      -13.832414687001863
Mo          2.380904466548321        2.748271123955651        9.987395514707854        2.486927382888947        0.749773097447840        2.393045051688621
S           1.215049382395740        2.073300217914831        8.649372963268300       -4.048629510246935        1.648450158320197      -22.939899414389707
S           1.151896521779294        2.031282629185096       11.598120688387114        4.084915762477926       -2.242258782799088       15.430385840191970
S          -0.040113544385874        4.106923037194537        8.634369834194905        5.376261129478993       -2.024776782567892      -19.388316303484221
S           0.047323475011978        4.080217059298794       11.439053729591652       -4.759150329532296        6.501372518677940       27.629153244825392
S           3.552056419823990        2.042824592904610        8.408859700865751        1.794953738761326       -0.973799586588544       -9.689632365381240
S           3.502674659587854        2.070646325599061       11.437037208052004       -1.963938541064225       -0.396399749813148       24.624473845369394
S           2.403399905705597        4.119811405152220        8.447453616640200       -2.633223732322727        0.023107542871574      -15.020573667637667
S           2.362534140411194        4.073409578723436       11.616450674601701        3.059462947421122       -0.924432841182759       15.911757244999864
