# total energy = -38803.40858342334 eV 

 CRYSTAL
 PRIMVEC
       12.740577282373799        0.000000000000000        0.000000000000000
       -6.370288641186900       11.033658440967770        0.000000000000000
        0.000000000000000        0.000000000000000       19.999979849788435
 PRIMCOORD
48 1
Mo          1.590438113601927        0.918229967491147        9.999991198951946        0.894941246310593       -1.214395043231227        0.000000000000000
S           1.629484160799218        2.698216019611591        8.438992737276401       -0.397055638522512        0.609259675827081       -0.090456334707862
S           1.629472694279664        2.698224938015688       11.560989660627493       -0.397055638522512        0.609259675827081        0.090456334707862
Mo         -0.002132772637069        3.676645214761953        9.999991198951946        0.631194795133505       -0.090679763672361        0.000000000000000
S           0.029397608021349        5.578875831849045        8.438995285391856       -0.462710072618812       -0.773314128506003       -0.152973764436090
S           0.029410348598632        5.578883476195415       11.560989660627493       -0.462710072618812       -0.773314128506003        0.152973764436090
Mo         -1.594706206991522        6.435060462032760        9.999991198951946        0.297423803865188        0.691264276448618        0.000000000000000
S          -1.665283908904960        8.269684479828662        8.438995285391856        0.849856675132350        0.096744741628139       -0.086632845489143
S          -1.665283908904960        8.269667917078195       11.560989660627493        0.849856675132350        0.096744741628139        0.086632845489143
Mo         -3.187278367288247        9.193474435245838        9.999991198951946       -1.050632153781007       -0.619829742754038        0.000000000000000
S          -3.148236142264141       10.973460487366282        8.438992737276401       -0.296987744574290        0.679331781348036       -0.107453905298242
S          -3.148247608783695       10.973470679828107       11.560989660627493       -0.296987744574290        0.679331781348036        0.107453905298242
Mo          4.775582434195377        0.918231241548875        9.999991198951946        0.415955312081090        0.604393346700412        0.000000000000000
S           4.807115362969252        2.820461858635967        8.438995285391856       -0.514634038370867       -0.671632866603544       -0.131399885285158
S           4.807126829488806        2.820468228924608       11.560989660627493       -0.514634038370867       -0.671632866603544        0.131399885285158
Mo          3.183011547956380        3.676646488819681        9.999991198951946       -0.097564666792452       -0.016991399940037        0.000000000000000
S           3.112433846042943        5.511269232557857        8.438995285391856        0.893073853250573       -0.014712887300921       -0.110254095001764
S           3.112432571985214        5.511253943865118       11.560989660627493        0.893073853250573       -0.014712887300921        0.110254095001764
Mo          1.590438113601927        6.435059187975031        9.999991198951946       -0.029669772400817       -0.012055393886579        0.000000000000000
S           1.629480338626034        8.215042691980019        8.438992737276401       -0.437233257125995        0.779061317969122       -0.113362303001568
S           1.629468872106480        8.215051610384117       11.560989660627493       -0.437233257125995        0.779061317969122        0.113362303001568
Mo         -0.002132772637069        9.193474435245838        9.999991198951946        0.009135133611801       -0.012102959316305        0.000000000000000
S           0.029402704252262       11.095701230159746        8.438995285391856       -0.453711978866709       -0.787919543646785       -0.073523813056514
S           0.029414170771816       11.095710148563843       11.560989660627493       -0.453711978866709       -0.787919543646785        0.073523813056514
Mo          7.960726754788827        0.918231241548875        9.999991198951946       -0.438024900142903        0.605655501805966        0.000000000000000
S           7.890149052875389        2.752855259344779        8.438995285391856        0.971105840603437        0.091919550170422       -0.132850759447032
S           7.890147778817660        2.752838696594311       11.560989660627493        0.971105840603437        0.091919550170422        0.132850759447032
Mo          6.368154594492102        3.676645214761953        9.999991198951946        0.006593339891389        0.020511241739799        0.000000000000000
S           6.407196819516208        5.456628718766940        8.438992737276401       -0.434271859182265        0.779089343006096       -0.114915250004532
S           6.407184078938926        5.456636363113310       11.560989660627493       -0.434271859182265        0.779089343006096        0.114915250004532
Mo          4.775582434195377        6.435059187975031        9.999991198951946       -0.000444801045551        0.002145072325451        0.000000000000000
S           4.807119185142438        8.337288531004395        8.438995285391856       -0.458354107697586       -0.765491286533792       -0.112387083136959
S           4.807130651661991        8.337296175350765       11.560989660627493       -0.458354107697586       -0.765491286533792        0.112387083136959
Mo          3.183011547956380        9.193475709303566        9.999991198951946       -0.007471372013097        0.018986576884241        0.000000000000000
S           3.112432571985214       11.028101001157198        8.438995285391856        0.790154347512639        0.012250540703673       -0.131355405180603
S           3.112432571985214       11.028090808695373       11.560989660627493        0.790154347512639        0.012250540703673        0.131355405180603
Mo         11.145871075382276        0.918229967491147        9.999991198951946       -0.044500673389546       -1.087627516580570        0.000000000000000
S          11.184910752290927        2.698213471496134        8.438992737276401       -0.404572004861026        0.666406325763108       -0.056910879670842
S          11.184900559829099        2.698221115842503       11.560989660627493       -0.404572004861026        0.666406325763108        0.056910879670842
Mo          9.553300189143279        3.676645214761953        9.999991198951946        0.120037404010000        0.000014655294564        0.000000000000000
S           9.584834391974884        5.578873283733588        8.438995285391856       -0.329607602059876       -0.799520109181006       -0.096942973770405
S           9.584848406609893        5.578880928079959       11.560989660627493       -0.329607602059876       -0.799520109181006        0.096942973770405
Mo          7.960726754788827        6.435060462032760        9.999991198951946        0.048917059262046       -0.104232568708817        0.000000000000000
S           7.890149052875389        8.269688302001848        8.438995285391856        0.741556362295407       -0.086824649870635       -0.140160666109490
S           7.890147778817660        8.269671739251381       11.560989660627493        0.741556362295407       -0.086824649870635        0.140160666109490
Mo          6.368154594492102        9.193474435245838        9.999991198951946       -0.066556634598518        0.080858659430774        0.000000000000000
S           6.407192997343023       10.973450294904456        8.438992737276401       -0.401276106246624        0.752394852512280       -0.129225759481009
S           6.407181530823468       10.973460487366282       11.560989660627493       -0.401276106246624        0.752394852512280        0.129225759481009
