# total energy = -9683.976562312006 eV 

 CRYSTAL
 PRIMVEC
        6.656943956970200        0.000000000000000        0.000000000000000
       -3.328471978485100        5.765079890335118        0.000000000000000
        0.000000000000000        0.000000000000000       19.999962657666302
 PRIMCOORD
12 1
Mo          1.686106047224384        0.953471420179259       10.100205614271712       -0.017048478455709       -0.012952195069747        0.335352991749977
Mo         -0.016271568114022        3.840711833474835       10.049146854121750       -0.008887793377223       -0.014070111223536       -0.025885106857172
Mo          4.979124473583452        1.011307614971812       10.096904435763451        0.027553753554065       -0.110983260183950        0.273558042332730
Mo          3.356692095307488        3.790690225193369        9.866618110682396       -0.053910143831176        0.129139884597071       -0.466774474311335
S           1.633490893577283        2.938279202613666        7.772286957795938        0.308660043918747       -0.017980503767917        4.482971560576849
S           1.611662108647982        2.894366006107116       11.982571683235491        0.098114883114694       -0.321516593908179       -4.421810645482336
S           0.018335220740683        5.733287657385420        7.828494864096615       -0.043169612688497        0.080001967474835        4.416167071522891
S           0.060441056962915        5.729596381961279       12.131955502713089       -0.213148918138326        0.281146656702342       -4.636717427637095
S           5.012698770430432        2.901544854470313        7.880895664148302       -0.236804106227833        0.011787484817524        4.667725974051891
S           4.978330965863782        2.917659318706951       12.156031006227867        0.153597771452016       -0.278434655876638       -4.554154640269957
S           3.371947148079281        5.707541260937441        7.745953418890954       -0.037324464151185       -0.133403032652722        4.398961241483439
S           3.348264404257964        5.730453796342937       12.203303296655104        0.022366807719995        0.387264616201346       -4.469394844270314
