# total energy = -38802.789964577794 eV 

 CRYSTAL
 PRIMVEC
       12.740577282373799        0.000000000000000        0.000000000000000
       -6.370288641186900       11.033658440967770        0.000000000000000
        0.000000000000000        0.000000000000000       19.999979849788435
 PRIMCOORD
48 1
Mo          1.605580289702028        0.926972551622312        9.999991198951946       -0.330018721638971       -0.190536312846339        0.000000000000000
S           1.619717234254551        2.774081061097213        8.438994011334129       -0.183109935158659       -0.105752605576618       -0.020170827529216
S           1.619715960196822        2.774081061097213       11.560989660627493       -0.183109935158659       -0.105752605576618        0.020170827529216
Mo          0.013008129405304        3.685387798893118        9.999991198951946       -0.329627399563059       -0.190619102405106        0.000000000000000
S           0.027143799900097        5.532495034310291        8.438994011334129       -0.183148501723302       -0.105721752324904       -0.020203480553947
S           0.027143799900097        5.532493760252564       11.560989660627493       -0.183148501723302       -0.105721752324904        0.020203480553947
Mo         -1.579564030891421        6.443803046163924        9.999991198951946       -0.329536639580932       -0.190258119360046        0.000000000000000
S          -1.565427086338899        8.290909007523370        8.438994011334129       -0.183131789545290       -0.105750291582740       -0.020203480553947
S          -1.565428360396628        8.290909007523370       11.560989660627493       -0.183131789545290       -0.105750291582740        0.020203480553947
Mo         -3.172136191188146        9.202217019377002        9.999991198951946       -0.329894537300820       -0.190156303629388        0.000000000000000
S          -3.158000520693352       11.049320432620991        8.438994011334129       -0.183139502858218       -0.105701440600858       -0.020170827529216
S          -3.158000520693352       11.049320432620991       11.560989660627493       -0.183139502858218       -0.105701440600858        0.020170827529216
Mo          4.801872615417556        0.933409091265367        9.999991198951946       -1.348282214825435       -0.778386145977436        0.000000000000000
S           4.751802146697827        2.743446343021746        8.529404969903037        0.430903198315903        0.248782109874694       -2.013769370797882
S           4.751802146697827        2.743446343021746       11.470579976116312        0.430903198315903        0.248782109874694        2.013769370797882
Mo          3.209300455120831        3.691824338536173        9.999991198951946       -1.348243391150361       -0.778453508910346        0.000000000000000
S           3.159229986401102        5.501861590292552        8.529404969903037        0.430931994684170        0.248757427273323       -2.013749830405130
S           3.159229986401102        5.501861590292552       11.470579976116312        0.430931994684170        0.248757427273323        2.013749830405130
Mo          1.616728294824106        6.450238311749252        9.999991198951946       -1.347806303417739       -0.778251934332478        0.000000000000000
S           1.566657826104377        8.260275563505630        8.529404969903037        0.430925309812965        0.248794965396242       -2.013711006730056
S           1.566657826104377        8.260275563505630       11.470579976116312        0.430925309812965        0.248794965396242        2.013711006730056
Mo          0.024156134527381        9.208653559020057        9.999991198951946       -1.347889092976506       -0.778108466712006        0.000000000000000
S          -0.025914334192348       11.018690810776437        8.529404969903037        0.430896256334268        0.248819390887183       -2.013749830405130
S          -0.025914334192348       11.018690810776437       11.470579976116312        0.430896256334268        0.248819390887183        2.013749830405130
Mo          7.942745978070213        0.907848945121469        9.999991198951946        0.631783063799528        0.364345278165230        0.000000000000000
S           7.934017408574059        2.741755668416374        8.429228358847190        0.149945260669881        0.086584508728123        0.071806572488171
S           7.934017408574059        2.741755668416374       11.570760409345345        0.149945260669881        0.086584508728123       -0.071806572488171
Mo          6.350173817773488        3.666264192392275        9.999991198951946        0.631860196928814        0.364804734505346        0.000000000000000
S           6.341445248277334        5.500170915687181        8.429228358847190        0.149957087749705        0.086564197004078        0.071806572488171
S           6.341445248277334        5.500170915687181       11.570760409345345        0.149957087749705        0.086564197004078       -0.071806572488171
Mo          4.757601657476763        6.424678165605353        9.999991198951946        0.631423880527485        0.364967485408140        0.000000000000000
S           4.748873087980609        8.258584888900259        8.429228358847190        0.149905408553083        0.086571910317007        0.071853366586605
S           4.748873087980609        8.258584888900259       11.570760409345345        0.149905408553083        0.086571910317007       -0.071853366586605
Mo          3.165029497180038        9.183093412876159        9.999991198951946        0.631406139907749        0.364542481865772        0.000000000000000
S           3.156300927683883       11.017000136171067        8.429228358847190        0.149926234497991        0.086535914856673        0.071853366586605
S           3.156300927683883       11.017000136171067       11.570760409345345        0.149926234497991        0.086535914856673       -0.071853366586605
Mo         11.121520010022476        0.904173288575504        9.999991198951946        0.916705387180432        0.529382664021690        0.000000000000000
S          11.172540925807469        2.772571302689252        8.349637972564201       -0.333097104828785       -0.192285692218551        1.410058138070792
S          11.172540925807469        2.772572576746980       11.650350795628334       -0.333097104828785       -0.192285692218551       -1.410058138070792
Mo          9.528951671898936        3.662588535846310        9.999991198951946        0.917029089213003        0.529604807434034        0.000000000000000
S           9.579963669279831        5.530986549960058        8.349637972564201       -0.333047996736473       -0.192285435108120        1.410058909402085
S           9.579963669279831        5.530986549960058       11.650350795628334       -0.333047996736473       -0.192285435108120       -1.410058909402085
Mo          7.936380785659939        6.421002509059389        9.999991198951946        0.917165614851840        0.529368008727126        0.000000000000000
S           7.987392783040836        8.289400523173136        8.349637972564201       -0.333072936448276       -0.192327858329227        1.410058138070792
S           7.987392783040836        8.289400523173136       11.650350795628334       -0.333072936448276       -0.192327858329227       -1.410058138070792
Mo          6.343807351305486        9.179417756330194        9.999991198951946        0.916811573788416        0.529198830063558        0.000000000000000
S           6.394819348686382       11.047820866674856        8.349637972564201       -0.333086306190685       -0.192307546605182        1.410083334893025
S           6.394819348686382       11.047820866674856       11.650350795628334       -0.333086306190685       -0.192307546605182       -1.410083334893025
