# total energy = -9693.976779914807 eV 

 CRYSTAL
 PRIMVEC
        5.956207443844399        0.000000000000000        0.000000000000000
       -2.978103721922200        5.158224551555346        0.000000000000000
        0.000000000000000        0.000000000000000       19.999943953578928
 PRIMCOORD
12 1
Mo          1.572004557652265        0.808016123728209       10.130857252884967       -0.716010898317525        0.787547504853195       -0.825518601738229
Mo          0.026479511433099        3.414417359530600        9.850262107067691        0.400599648702784        0.147757250902461        0.008572833099305
Mo          4.455956721647383        0.888793017840138       10.098363758795818        0.258897862670155       -1.632608042006526       -1.845996844176932
Mo          3.044207498996218        3.386755540919898        9.936344790770596       -1.448812907549374        0.977201928921360       -0.631661707676118
S           1.484517995854846        2.628691746540234        7.976984833836099        0.232521674889860       -0.465220241756217        3.562959733254347
S           1.502723143906956        2.573479490398029       11.981372283749165        0.282344019979296       -0.150616833115534       -3.519863911259534
S          -0.036750395549264        5.131295942080981        8.097888101876462        0.309257054339423        0.356778518182249        3.199217379049704
S           0.007775233197194        5.142384017858442       12.031516998598144        0.159532908640162        0.072329277994301       -3.524454618004221
S           4.445783519333297        2.616726917027039        8.014498219558918        0.291964063863877       -0.454096616071416        3.384173881323475
S           4.509927108537546        2.584908261241278       11.653229925149166        0.014895435706898        0.622800653783713       -0.988236080176189
S           3.017204436928805        5.110579061349801        8.015567954415834       -0.083346459960687        0.297967078205795        3.607281457783949
S           2.969519635754131        5.178853876037101       11.803342434494143        0.298157339924701       -0.559840737003813       -2.426473778589988
