# total energy = -9699.370766940396 eV 

 CRYSTAL
 PRIMVEC
        6.529570993135899        0.000000000000000        0.000000000000000
       -3.264785496567950        5.654771719330517        0.000000000000000
        0.000000000000000        0.000000000000000       20.000062892833274
 PRIMCOORD
12 1
Mo          1.580619126922301        0.963231212636720       10.127962719056750        0.828280739097970       -0.018732037557596       -4.794707673691533
Mo          0.042694905852818        3.795002985138067        9.947531736760526       -1.924987853437256       -0.973987277203141       -1.420618691911803
Mo          4.885225212191890        0.925532081550750       10.137190308784250        0.665683845452127        0.102311182458297       -4.609780739117321
Mo          3.214917856979172        3.813744812759665        9.889238991719305        1.173919690748699       -1.266023074877254       -0.547024810462472
S           1.571486215974202        2.829705163282020        8.342542944977643        0.401487451020869       -0.222037225736412        1.196704560029426
S           1.597347887806715        2.875263938972428       11.450201498123871        0.552426957727250        0.474937473383699        1.395264518094551
S          -0.003892930226108        5.632690669103029        8.449876685919911        0.005846948310329        0.870423966946097        0.868936068882166
S          -0.035684758434587        5.635140564139654       11.467821545448848        0.152554674433635       -0.298894989751108        2.101717850362217
S           4.874460561452606        2.813016232780665        8.229062918859539        0.084663636698465       -0.033970201468957        2.625824865451159
S           4.912504453887014        2.789849967854118       11.505016593654146       -0.335121335251688        1.160972894998002        0.111287678934199
S           3.333076973670960        5.632545712626982        8.341609216325626       -0.643845399667742        0.700308135857431        1.676193916482737
S           3.312525148970064        5.615081722048741       11.508952619048809       -0.960909612243088       -0.495308847049059        1.396202714057103
