# total energy = -9593.23627394624 eV 

 CRYSTAL
 PRIMVEC
        5.191810907663900        0.000000000000000        0.000000000000000
       -2.595905453831950        4.496238041309629        0.000000000000000
        0.000000000000000        0.000000000000000       20.000080883695549
 PRIMCOORD
12 1
Mo          1.328351298961438        0.739992442936971       10.030241725078747        0.211732496774200        5.306183110418127       -1.923770178436256
Mo         -0.035330273226653        3.013313552099767        9.842818389674262        2.893404576043343       -4.329166301007053       17.032273042355936
Mo          3.892907040989641        0.721887040758675       10.028279220555650       -7.973475003284004        7.164566506716707       -8.694749466344025
Mo          2.545925966948233        2.994634973997265       10.020140018595706        1.229862806757429      -12.726602006750337        0.412895183731874
S           1.279160967335685        2.204981821366307        8.882464205391313        3.441510535867978       -1.702960655007651      -36.215468958018803
S           1.289726302532782        2.207166016215162       11.159944474272240       -6.507138220092087        4.696441609643437       30.896378646856352
S          -0.030727213675918        4.492512397802289        8.876776576541968        2.412276654813561        7.455574633998296      -38.838517545036517
S          -0.000492702855137        4.539087095092761       11.087125172843526        0.895573737970740       -9.279928179207937       37.327984764315737
S           3.858578787268167        2.223802655087680        8.867264659778037       -5.752567184892211       -3.202502736136436      -34.808913435348906
S           3.877854942806141        2.225836287420212       11.083530362971061        4.134111272336695        4.472160324065658       33.164354386290768
S           2.612428392045590        4.462742554057745        9.043813747236420        0.830166644109018        3.003712150014745      -44.231472083466073
S           2.570936477633722        4.502082982029477       10.982673205916599        4.184541683595337       -0.857478456747555       45.879006157320781
