# total energy = -9666.457412548665 eV 

 CRYSTAL
 PRIMVEC
        6.529570993135899        0.000000000000000        0.000000000000000
       -3.264785496567950        5.654771719330517        0.000000000000000
        0.000000000000000        0.000000000000000       20.000062892833274
 PRIMCOORD
12 1
Mo          1.613576483553055        0.939329065059246        9.820692861347563        2.202934256605511       -3.281126591701357        0.337406018541146
Mo          0.070657140673823        3.722029805632979       10.046523950759061       -7.298581205084668        6.700529230053309       -0.780887573360189
Mo          4.841236798325332        0.962535813325951        9.823439851864375        2.558077552446892       -4.854985157345288        2.550617236182326
Mo          3.265032314351490        3.775900725197649        9.837444475730454       -4.194376157579335        0.274048866145422        0.447956818980231
S           1.580942993643560        2.801170938042016        8.975605747389347        1.170394449629887        1.178808388482862      -18.272141301533946
S           1.592412838050103        2.816777265672711       10.791956099262940        5.602395409932659       -2.523389498654712       17.875114973600564
S           0.029544349872642        5.705465349649926        8.928011704420380       -2.391022106817873       -4.238831065312171      -12.511001283542431
S           0.014408151353454        5.638121313298020       11.046883609976952       -0.847288656147980        1.104200083628583       10.614560401254016
S           4.853934202078584        2.802023047056621        9.210287670282042        4.235771965404678        3.562291246133866      -17.943658300499067
S           4.843321690343441        2.828453444522637       10.988231085574009        0.253451492411253        0.029304418478432       17.110028378885094
S           3.228894403689980        5.616405919046149        8.924682929128080       -0.310214533584296        1.538813899684017      -13.671327802917016
S           3.275342506949652        5.656989814596885       10.850094093471622       -0.981542467216729        0.510335923296606       14.243332434409268
