# total energy = -9619.691177891136 eV 

 CRYSTAL
 PRIMVEC
        4.204419078754800        0.000000000000000        0.000000000000000
       -2.102209539377400        3.641132032678625        0.000000000000000
        0.000000000000000        0.000000000000000       20.000118839462914
 PRIMCOORD
12 1
Mo          1.007410344412741        0.637191063316803        9.880140978767212        5.122583894109362       -5.749439693610085       -0.131544638457785
Mo          0.050792746006621        2.402589635598050       10.056467167417754       -6.711227080864451        5.119766478006967        4.152486440616127
Mo          3.129065322029381        0.638945146956459       10.104864655875208       -3.047571847099923       -0.001428762664812        5.447851729205163
Mo          2.058682870422683        2.459609967144122        9.971395792662046        6.036464408984901       -0.081712266061542        3.646284081717972
S           1.042048030551154        1.856151798979985        8.057090150752355       -0.656896839363837       -0.126174887107307       -8.746772933832856
S           1.093206981459535        1.807316630496433       12.152617718460760        0.345455889023890       -0.392517896526602        4.936029964728073
S           0.009877441741719        3.639287974470684        7.947800060777295       -0.615288401212095        0.000106700828846       -7.115148082114301
S           0.022964537008159        3.620164594732875       12.091273982776004       -1.179529840352119        0.314038794134308        4.106931100238807
S           3.123063513794459        1.822286044184431        8.084300310146240        0.854748972412546        0.119264530054552       -7.187924475148030
S           3.184357637334086        1.815525758747702       12.098265931703974       -0.734332844737750        0.858832400276960        4.584911475572849
S           2.064256668795388        3.664599838650511        8.140029044151319       -0.553960878558322        0.444181152301669       -8.931769288223427
S           2.087697146043262        3.663231720682284       12.222191604492179        1.139554053436935       -0.504916549632954        5.238664625697409
