# total energy = -9671.085034004376 eV 

 CRYSTAL
 PRIMVEC
        8.918435848296600        0.000000000000000        0.000000000000000
       -4.459217924148300        7.723588405521063        0.000000000000000
        0.000000000000000        0.000000000000000       20.000056148469234
 PRIMCOORD
12 1
Mo          2.205203662375286        1.354800481558321       10.187663937890516       -0.180362967314344       -0.106825270294559       -0.032274815287245
Mo         -0.058884864531963        5.158172686607417       10.145687535883336        0.006227471748141       -0.451232405870587       -0.021851301305932
Mo          6.614406998286339        1.297198979944928        9.902353364824075       -0.032079154249289        0.409548634362574       -0.495838751647255
Mo          4.362739176985012        5.218396208360208       10.146755072654377       -0.116432715768023        0.178306598087573       -0.131924390564304
S           2.154162562171900        3.896534185920401        8.470687560220037       -0.009815704922537        0.073189826606705        1.906890107312823
S           2.139269666148830        3.923083477597195       11.442214065765302        0.003046758606807       -0.019104590572049       -1.494118336587807
S          -0.069862567217631        7.737893576621730        8.268843736414221        0.454299476201439        0.279837450387924        2.567042221842971
S          -0.095981990286538        7.736353362750729       11.737106606307156       -0.339271354717719       -0.021116479694265       -2.438825877913888
S           6.717531763843777        3.891250904523870        8.444701913688856        0.097218339041957       -0.422624756660041        2.155747550543787
S           6.718211348655418        3.849072054022936       11.716923294138875        0.181757791402271        0.279138624236590       -2.173349844867771
S           4.528691647562946        7.720256477888139        8.291286980226459       -0.381417667891018        0.038557822888472        2.462689582562898
S           4.524432202601799        7.731919116446957       11.686185904987720        0.316829727862316       -0.237674939257475       -2.304186144088277
