# total energy = -9687.520878223393 eV 

 CRYSTAL
 PRIMVEC
        6.784369838529400        0.000000000000000        0.000000000000000
       -3.392184919264700        5.875433889412424        0.000000000000000
        0.000000000000000        0.000000000000000       20.000016987341937
 PRIMCOORD
12 1
Mo          1.667989564450210        1.017666330771152       10.198456738943824        1.435431852280796       -1.627626013185927       -3.842537244996576
Mo          0.011338038874150        3.904273225298802       10.011268512291975        2.878079765916751       -0.554513665984874       -0.432382097514752
Mo          5.096185918817824        0.948699140740597        9.982221911265295       -0.059978978443418       -0.072045170968097        0.049344891019154
Mo          3.429706555093671        3.924013027780987       10.006890558435172       -3.065412225682970        0.962340688901779       -0.178446980382874
S           1.763554197995735        2.889847109562532        8.686028704269191       -0.357113275963352       -0.070107843870857       -3.811868084350640
S           1.727427428605566        2.877744472207580       11.170034131653910        0.129334002972441        3.426762938658877        6.689740619260043
S           0.049186002892354        5.855624207920901        8.882690624963560       -1.770784072699480        0.349121769548434       -7.050502806459495
S           0.011772916980800        5.862152807016519       11.122616135541476        0.193711112447761       -0.268799185366200        7.581468499404570
S           5.070718751317952        2.958027991128801        8.984585754005417        0.532043499871635       -0.570820380847279       -8.961814441853436
S           5.126753575562302        2.894296977739624       11.052926410123119       -0.202834933200600        0.260283173672136        8.733442529319177
S           3.363318104038741        5.907885565661060        8.842810742178719        1.484332456475261       -0.287424007874088       -6.776387348712456
S           3.397548642059041        5.927413017367300       11.123802043389251       -1.196809461085255       -1.547171788463044        7.999942208156856
