# total energy = -9676.277989085793 eV 

 CRYSTAL
 PRIMVEC
        6.083633325403599        0.000000000000000        0.000000000000000
       -3.041816662701800        5.268578550632652        0.000000000000000
        0.000000000000000        0.000000000000000       20.000011477230910
 PRIMCOORD
12 1
Mo          1.536222661520938        0.878886080711079        9.956659851171956        2.642596435972730        4.394948518987538        1.356539316315528
Mo         -0.042749691377611        3.518595873320340        9.917507412179654        3.772259965351720       -1.916315004380310        4.315495739393221
Mo          4.520386556287886        0.874462670920178       10.104144157153049        0.191883828614969       -0.252318663852469       -1.925332638525165
Mo          2.997240664599902        3.501017823189919       10.043603488478627       -1.853576459681461       -3.312420530694511       -0.740807656720469
S           1.509673685688877        2.636565770906692        8.724361518231532        0.412426471416244        0.218069754676358      -11.181385028893837
S           1.492291528551534        2.638772913077148       11.301032093959629       -1.528012690479632       -0.380216705068031        9.215769613598930
S           0.020240248073618        5.225775931645109        8.900740040691630        1.199474667812526        3.137532730007337      -16.369326394551749
S          -0.040603993903741        5.300583328830935       11.268607545061892       -1.051619714946302       -2.221590446585976       11.962082597645551
S           4.495289135367265        2.673350459808745        8.817618141839976       -0.820927123662250       -2.601701479266885      -13.887141670672182
S           4.588959446041837        2.624970974151805       11.094893653998319       -0.116832522488157        2.063488614604505       16.175896818025883
S           3.062489457104853        5.276716626932044        8.932514249186882       -2.703663505759946       -0.238503091955578      -16.101265116122384
S           3.087526041692219        5.251374643951744       11.064007655968577       -0.144009095040012        1.109026817748885       17.179474163396243
