# total energy = -9673.248576599944 eV 

 CRYSTAL
 PRIMVEC
        7.994704042442199        0.000000000000000        0.000000000000000
       -3.997352021221099        6.923613568356005        0.000000000000000
        0.000000000000000        0.000000000000000       19.999959362479569
 PRIMCOORD
12 1
Mo          1.937337443315316        1.208429895890500       10.086122617297098       -0.030828312002697       -0.471155121833932        0.914424303437007
Mo          0.023976916893688        4.680704146071272        9.816280569634165       -0.002685261340885        0.439921860902482       -0.415832156184663
Mo          6.001398074536958        1.109493834424469        9.847071372783226        0.060511454145924       -0.343898571143601       -0.179327840719323
Mo          3.971776163518923        4.630135244591612        9.928278378564737        0.111940225207961        0.272917837359654        0.073685535517584
S           1.961615760551405        3.498487285795131        7.798773033651643       -0.156332397995645        0.294421011142075        3.888968817722588
S           2.099949723538590        3.408680376875166       12.154449288995810        0.021183585516744       -0.254585863632623       -3.951213710394005
S           0.073013233608412        6.866305930838971        8.068320076735411        0.303415762458575       -0.267018695631842        3.592636447636800
S          -0.069238933829975        6.915227923285888       12.032071955806934       -0.175836538177396        0.127452468838718       -3.796292334443437
S           5.906296273129683        3.473635748279200        8.046049229684378        0.121442512515165        0.006740407057894        3.581096303053853
S           5.956562175326133        3.414763547181060       12.216062074639698       -0.130977709957531        0.056873341547922       -3.530245773351032
S           3.926184764776087        6.936350730836424        8.067708481876164       -0.306537854421651        0.015334580322968        3.655152334702443
S           4.049715733758288        6.918982236304219       11.932401181039403        0.184704791161867        0.122997002180714       -3.833051669867384
