# total energy = -9672.671816909005 eV 

 CRYSTAL
 PRIMVEC
        5.828834480010100        0.000000000000000        0.000000000000000
       -2.914417240005050        5.047916380550747        0.000000000000000
        0.000000000000000        0.000000000000000       20.000054246341612
 PRIMCOORD
12 1
Mo          1.450817302995194        0.877634784219265        9.921283649530007        5.301909420834807       -5.264858779292588        0.063163548241216
Mo         -0.010710483357019        3.409498622699876       10.072428824897358       -5.704927964472008       -4.707714873599053       -4.281726855391701
Mo          4.393981188888757        0.831468083603793       10.012467604601492       -8.101673092372490        6.743690100987155       -0.254452680429388
Mo          2.943159805709427        3.325447412381578       10.009751367733809        1.793631934035791       -0.752892875417038        0.200688061102133
S           1.395995366060355        2.557959530447616        8.791550025399962        0.530826081981067        2.110753225126809      -16.329088869217856
S           1.431656175409057        2.484340768081641       11.103596275086984        1.509771733845158        0.239587326642912       19.769809818952368
S           0.082576515194855        4.997584977699308        8.699653786755018       -1.279441925379182        0.695720257327485      -12.630826828557327
S           0.028030865014369        4.998090337648724       11.226016954136844       -2.027707327259907        4.992569319826186       15.784295263075201
S           4.361268021136596        2.493726940244801        8.690789878161267        1.325903065804754        0.918838118205197      -10.830957138356155
S           4.346004635167242        2.488179638470175       11.435024969387253        0.316630724388757        0.329456935347336        9.368857020845502
S           2.875529005004767        5.066223583885562        8.895428016202013        1.310498551444566       -2.924594642422393      -20.653950627389872
S           2.860319244312628        5.091077734108326       11.113344417871353        5.024578797148686       -2.380554369842437       19.794189544236307
