# total energy = -9686.107409462722 eV 

 CRYSTAL
 PRIMVEC
        5.956207443844399        0.000000000000000        0.000000000000000
       -2.978103721922200        5.158224551555346        0.000000000000000
        0.000000000000000        0.000000000000000       19.999943953578928
 PRIMCOORD
12 1
Mo          1.501727861643090        0.891793755150347        9.917998480602067       -0.527948759148259       -1.468914829483094        3.797866107391307
Mo          0.053219904752238        3.421505246388775        9.860616378088070       -1.666799615556534       -0.596248088247784        2.974874386968496
Mo          4.491058438976191        0.861491549779789        9.853520748160218        1.111898741262643        2.101108755751287        3.457273976389776
Mo          3.005100232161425        3.436628057088696        9.853132403434879        0.772124735652409       -2.040481087690572        3.572630427893826
S           1.521834231111275        2.532625863540701        8.605468952791950        0.081452327415847        0.636374798985938      -12.052167150670254
S           1.522919452107544        2.601236012707088       11.229021087928890        0.274124456612122        0.384265680134697        9.222043108114210
S           0.003761345000788        5.185413447295007        8.739061920791425       -0.669402947835879       -0.594835780650553      -14.811178818901702
S           0.052214496935718        5.139729931821464       11.232285685228861       -0.234651834810316        0.121323470385633        8.717630752036358
S           4.480479618935179        2.606487005189582        8.531859758717943        0.735092091840358       -0.506739719698850       -9.650049443204553
S           4.518194324469603        2.568147493494300       11.236141733928006       -0.305368259071241        0.240974180307478        7.416290217031947
S           3.007583375044763        5.127215939981948        8.638734966986565        0.542244099109310        1.450313404024423      -12.548716298438235
S           2.981078847540400        5.132052380426349       11.183264906724533       -0.112765292580893        0.272859216181397        9.903502735388823
