# total energy = -9681.651736002825 eV 

 CRYSTAL
 PRIMVEC
        8.376928769394899        0.000000000000000        0.000000000000000
       -4.188464384697450        7.254629737515218        0.000000000000000
        0.000000000000000        0.000000000000000       19.999984452360476
 PRIMCOORD
12 1
Mo          2.080830781703447        1.150357554792770        9.985824326552560       -0.438729896944579       -0.227297190932872       -0.413921825682674
Mo         -0.078102295381453        4.847143969220724       10.144487545909284       -0.322230075354077        0.351807802220613        0.039196485198962
Mo          6.186426398549657        1.263616144833620        9.833500766888514        0.240034955903203       -0.070185748331436       -0.340147329955980
Mo          4.256810908834066        4.784565798234715       10.020194027600512        0.362651177535673        0.570343698108290        0.069658671947980
S           2.122077103578194        3.652333404220284        9.124843587634153       -0.158861336194510       -0.037779806724405       -2.478525528226227
S           2.157720935491969        3.602542615000754       11.078863583933623       -0.250081803103168        0.171352018040694        2.616497156126573
S          -0.088091782938957        7.310066576725320        9.039775038288072        0.440908907846915        0.032835830247587       -2.148493693955277
S          -0.099539693795212        7.312393687537457       11.040231701527805        0.364122620532024       -0.524116785285318        2.507552010328797
S           6.367302719924187        3.614584450106760        8.952799062261198        0.144178016593148       -0.452601004694556       -3.033106557144011
S           6.248371273720702        3.688519223425439       10.925718247557299        0.011676927332214        0.162826236150254        2.966289469678936
S           4.179336045417440        7.263627396706425        8.984850029425781       -0.335881610796019        0.162358038055486       -0.087049364387289
S           4.206516666195496        7.263356821907173       11.172593877627259       -0.057787883350826       -0.139543086854338        0.302050506070209
