# total energy = -9370.726184736239 eV 

 CRYSTAL
 PRIMVEC
        4.013280256416000        0.000000000000000        0.000000000000000
       -2.006640128208000        3.475601034062666        0.000000000000000
        0.000000000000000        0.000000000000000       19.999977480556058
 PRIMCOORD
12 1
Mo          0.989953031553955        0.547734496035784       10.144214795508901      -12.442957779321704       11.387584252083473      -21.526768806669015
Mo          0.009171148041962        2.286362551455990        9.930527286928006       -2.621122572779439       -7.945990669546298       27.987529190115158
Mo          2.990809621584434        0.579155671147342        9.869008516533455       22.035766727282933        5.727756285415565       33.325752116886640
Mo          1.969342306816972        2.319113326316498       10.182427644798393        9.500651827752604       -6.467182487790517      -28.494046766401659
S           0.970494240902697        1.745552167846600        8.820833624315597       16.290310188469189       -8.356649249639300      -69.697818810865826
S           1.002046248950613        1.736779137206075       11.252601734069820      -13.730588929037209        0.013135257696586       80.578312130401770
S          -0.000925061099104        3.480876892287750        8.941887802001975      -21.900928247094196        1.847469315615007      -95.391555546064041
S           0.014412893384867        3.449387491411834       11.120534312703786       16.345748339591527       -5.452181211751999       79.684455890109803
S           3.009751903066692        1.765381384265526        8.878325870628885      -17.219934860584207       11.864402745380032      -83.953986712209201
S           3.045824068667410        1.726519186230548       11.284779011181687        7.697976548528862       -8.032442766402479       60.638900187001788
S           2.043244053442693        3.454118346178097        8.786253194986189        9.507313301908196       -7.498443170372145      -63.354062699675730
S           2.001895628288865        3.453937347238532       11.239274834322341      -13.462234287606130       12.912541442201645       80.203290084480741
