# total energy = -9697.054487458625 eV 

 CRYSTAL
 PRIMVEC
        7.039168683922899        0.000000000000000        0.000000000000000
       -3.519584341961449        6.096096059494329        0.000000000000000
        0.000000000000000        0.000000000000000       19.999981709846463
 PRIMCOORD
12 1
Mo          1.798483665568775        0.983025538044780       10.066513814653778       -0.845022484809550        0.083957097234203       -0.455499924803564
Mo          0.032970762198626        4.042620620101051       10.038799903628304       -0.853021447426965        0.139696324671187       -0.034880629504965
Mo          5.305367939390691        1.016406683777679       10.116065338687383       -0.662879284871279        0.286350571824855       -0.505454167544079
Mo          3.520657111268880        4.013692452477602        9.961084665690322        1.004068940514347        0.951145586517173        1.728754744772265
S           1.802679010104393        3.085571726250552        8.723301758138216       -0.591368389378705       -0.886726568041608       -2.903507730427687
S           1.817273318536771        3.011607661304232       11.388468285660760       -0.117804914138025        0.083288610113722        2.062119501559674
S           0.015072971902884        6.060968496010949        8.579743544164554        0.124038299426078        0.137857213758571       -0.449088104876429
S          -0.029237891045542        6.099261573651489       11.388755483743065        0.490269482602357       -0.386801560315198        2.014901428025373
S           5.261111981958000        3.008889134358501        8.539242983224735        0.369948742897445       -0.091309170007337        0.108179985155256
S           5.260128610092855        3.088546478936378       11.548461550677644        0.194624368698510       -0.144858073683022       -0.311980882244951
S           3.480011543454172        6.079261183669859        8.695111999309709        0.360958619568702        0.260109109910380       -1.288583486751758
S           3.457163809739895        6.131878265665313       11.576316948993664        0.526188324027516       -0.432708884872494        0.035039523751295
