# total energy = -9574.76331141414 eV 

 CRYSTAL
 PRIMVEC
        4.204419078754800        0.000000000000000        0.000000000000000
       -2.102209539377400        3.641132032678625        0.000000000000000
        0.000000000000000        0.000000000000000       20.000118839462914
 PRIMCOORD
12 1
Mo          1.008312192305134        0.634151268322863        9.971942367142283        9.492587301975295       -2.110032030367982       -9.378546484546439
Mo         -0.012290357851016        2.442048529094072       10.143919925139670        6.871539291220834        7.375975044347904      -15.235623403192037
Mo          3.194402835397047        0.585821891454484       10.108828161740750      -12.989925768378937       -2.766329031096404      -17.443870332632354
Mo          2.072879091442099        2.420871290636291       10.020368445649472       -1.688576354837490       -1.796802105649456      -10.907031486887735
S           1.084696396360319        1.800391952273724        8.382177095247400       -2.789633006337227        2.108032225436021      -19.788804366259971
S           1.020834634089297        1.836459561340821       11.729122561450287        1.925690536245053       -0.994321626966443       19.440272665150577
S          -0.011822826449458        3.635066737715614        8.292329920860134        0.980357959461323       -1.500946932523519      -14.105100867863227
S          -0.029375014777536        3.664481694474398       11.676035463952390       -0.443777488925071        2.054302058906513       21.298135669936904
S           3.111181405035990        1.818481885801974        8.404287714740663        2.858396676875055       -0.037203879359067      -16.916477189125388
S           3.167717807946098        1.832706696871125       11.395831534006870       -6.099664981128175       -0.865610859678635       41.753328621340245
S           2.088036022221009        3.660957970844494        8.246007313218044       -0.674122209796043       -0.020507385083335      -14.511100092726480
S           2.139898792883173        3.644157112205789       11.451177665875782        2.557127786514948       -1.446555220855166       35.794817009695478
