# total energy = -9688.762444023108 eV 

 CRYSTAL
 PRIMVEC
        6.784369838529400        0.000000000000000        0.000000000000000
       -3.392184919264700        5.875433889412424        0.000000000000000
        0.000000000000000        0.000000000000000       20.000016987341937
 PRIMCOORD
12 1
Mo          1.734970969429026        0.995414276137759       10.009140255473628       -0.270533909443847       -0.204169336337252       -0.060096220799933
Mo         -0.046973619888010        3.947851268082628        9.989342107410831        0.133659628862814       -0.122831937284041       -0.082686714594858
Mo          5.097510227810305        0.967880589585071       10.086224265579000       -0.250650274266007       -0.033161074942744       -0.073048158759249
Mo          3.350296863007651        3.899981432938949        9.829296787608971        0.151757632097677        0.037898077522643        0.142762366560315
S           1.720273310610837        2.958246447837602        7.907284812353594       -0.056812149265355        0.017267793653312        4.336756715149682
S           1.707243928335941        2.962371344699427       11.797886175553790       -0.193488969035416       -0.103180987046215       -4.010681296190254
S          -0.049991986029172        5.872045096678077        7.958743579141855        0.055029345537119       -0.021684950857105        4.434487732390961
S          -0.048412584730762        5.846338440922906       12.022294812013779        0.235499013680310        0.130871009128685       -4.455584157471613
S           5.012519713095111        2.973969903375377        7.969393682914378        0.100603969196761        0.008164027514087        4.295920893842957
S           5.047989755484910        2.888983459282088       11.971103349397156        0.238216156714633       -0.066383599278486       -4.298277053832220
S           3.347735084956623        5.854914562835790        8.083156710114775        0.114914735783670        0.040991630227884        4.113233391122355
S           3.450167536089691        5.845535849971008       12.049429577619961       -0.258194922751926        0.316219604809661       -4.342787240307712
