# total energy = -9676.555951184311 eV 

 CRYSTAL
 PRIMVEC
        8.536211121343900        0.000000000000000        0.000000000000000
       -4.268105560671950        7.392572236361851        0.000000000000000
        0.000000000000000        0.000000000000000       20.000043889919510
 PRIMCOORD
12 1
Mo          2.163030656229601        1.293420367043822       10.041229650526930       -0.054299923244502       -0.431497894742700       -0.412359879814627
Mo          0.028022673869148        4.905976497577710       10.156098882723519        0.154574533979211       -0.235950499597065       -0.172690020723379
Mo          6.337365084112476        1.206160656098108        9.918981717437052       -0.277861556726041        0.306258375383204       -0.695923374567939
Mo          4.327965741160374        4.885371791173009       10.171160173626017        0.342499633288779        0.153703700949569       -0.216825597300971
S           2.051561396922644        3.750202534865558        8.489835593563862       -0.098889556843159       -0.239580898882138        2.402492831584462
S           2.056901650600157        3.733870202127091       11.768108574859252       -0.087370238205119        0.134882446072432       -2.257902666970494
S          -0.038193569420229        7.452783255127363        8.229431644338369        0.323748055338430        0.402901301280686        2.596741819053779
S          -0.108553289587906        7.454564762388387       11.519964332046230       -0.003044187502497        0.003768724696926       -1.973314330039400
S           6.303768264381090        3.748066774842997        8.434788128905653       -0.179671597365509       -0.315306091448481        2.385200869550640
S           6.384338146671007        3.634279080595483       11.693994629040407       -0.150985786583953        0.279110084978754       -2.177603736947908
S           4.337469958622878        7.396504015204342        8.319454526824064       -0.144413529747903        0.273118897716661        2.223833477985620
S           4.359601793197187        7.347448117132203       11.495916971696294        0.175714153612262       -0.331407889297417       -1.701649134699354
