# total energy = -9664.911940625074 eV 

 CRYSTAL
 PRIMVEC
        8.536211121343900        0.000000000000000        0.000000000000000
       -4.268105560671950        7.392572236361851        0.000000000000000
        0.000000000000000        0.000000000000000       20.000043889919510
 PRIMCOORD
12 1
Mo          2.098675306964677        1.183489332980931        9.928825676102186       -0.239108072799613        0.053368669263586       -0.357724941678592
Mo         -0.017547035581035        4.961276634085112        9.953044614295663       -0.113932316826994       -0.049617685186396       -0.365650113602323
Mo          6.449670892109324        1.254141845190070       10.177383071533479        0.133503305720794       -0.067208923761849        0.601812472194494
Mo          4.280516358021272        4.938395320174349       10.076471398141400        0.144069773101717        0.130720085305715       -0.018714811158722
S           2.118531387654035        3.627544863641855        8.053716299268842       -0.149305569917667       -0.137053743661840        3.340654084228019
S           2.113389174074538        3.652532060836253       12.287572873679736        0.130342132972212        0.125814418283109       -3.245819158881007
S           0.079907472306900        7.335430839115575        7.945770787912776       -0.327428334047108       -0.267237239498153        3.410910537927968
S           0.023045209164292        7.356205416121590       12.206065715408696        0.231248464035775        0.058602409196089       -3.435281778567681
S           6.453794735702047        3.716270242037104        8.081017663298237        0.195962371381195        0.264990865662907        3.472083794323168
S           6.417777046496648        3.686559105608154       12.275087811293659       -0.119644539271502       -0.215658573054870       -3.444689449236294
S           4.313297115969457        7.332852903356930        8.095279111218666        0.382924335016409        0.067445979579189        3.537371074724065
S           4.204576516643572        7.420931236949180       12.294148317106508       -0.268631549365218        0.035833994982943       -3.494951453162662
