# total energy = -9689.166507132726 eV 

 CRYSTAL
 PRIMVEC
        6.784369838529400        0.000000000000000        0.000000000000000
       -3.392184919264700        5.875433889412424        0.000000000000000
        0.000000000000000        0.000000000000000       20.000016987341937
 PRIMCOORD
12 1
Mo          1.703497599311105        0.996812534761480       10.155646008388736       -0.263796587711125       -0.134182334368944       -0.151873331791607
Mo          0.002181853340071        3.941008552663487       10.000875536136332       -0.131839287011658       -0.156045205644269       -0.121645886866050
Mo          5.173917157805790        0.922901574429589       10.067778242425023       -0.675253752802672        0.442520990248998        0.101379414256519
Mo          3.390317860685137        3.859019443164859        9.883761030235702       -0.256027481818983        0.390323458998408        0.336117895282066
S           1.620602776439033        2.954527934729104        7.970751913756052        0.360012196072360        0.128113756867132        4.304452075052446
S           1.638558968090669        2.932098129605942       11.865619288710716        0.118167696956102        0.020160286001547       -3.924689169895050
S           0.016505693380158        5.861817659146494        8.078884592427453        0.055020346672036       -0.037239617708970        4.262506308015292
S          -0.040316796202445        5.914208598350570       12.032662007564037        0.118486513890485       -0.093885416525498       -4.261233868492500
S           5.071687559330893        2.966707235463232        8.072805118615147       -0.024035197306457       -0.048728854426587        4.144588779508509
S           5.024196970461188        2.935886521723776       12.086711046756649        0.312694363690849       -0.117936811789105       -4.353649898905094
S           3.321586088287979        5.924852596190239        8.155965888784888        0.304418750249727       -0.442983274803854        3.998042518735841
S           3.389994246243838        5.923077805040480       12.106737828083004        0.082152439119336        0.049883280261572       -4.333994320679510
