# total energy = -9698.770940557124 eV 

 CRYSTAL
 PRIMVEC
        6.656943956970200        0.000000000000000        0.000000000000000
       -3.328471978485100        5.765079890335118        0.000000000000000
        0.000000000000000        0.000000000000000       19.999962657666302
 PRIMCOORD
12 1
Mo          1.624383528549752        0.983209320223836       10.098289745800896       -0.394645742453178       -0.728847650803774       -1.987669833841294
Mo         -0.050085514943452        3.877835612839670        9.928630206419156        0.863238501732221       -0.542058722488592        0.966407918809043
Mo          5.011447930660917        0.918330744419205       10.082181938508214       -1.477006351855653        0.374287224309366       -1.832882412425253
Mo          3.336167405699358        3.814787030928809       10.034442996309593       -1.864640949967142        1.685213350400609       -1.784668807302298
S           1.627367170831266        2.834738427695743        8.475567124768407        0.140510593406018        0.244498907205429       -0.425005856361108
S           1.669162793465104        2.902797691323014       11.342830049249114       -0.946008262996278        0.620973627061353        3.247973744292404
S          -0.063630398812700        5.809371201258423        8.655672740607423        0.299069824844157        0.426537977419163       -2.302516726060091
S          -0.053187650827401        5.778781212387354       11.502972155855574        0.231639529001257       -0.561872680739644        1.632022858665674
S           4.910970681351992        2.918223161860106        8.658047938211270        0.671539535517108       -1.143714614430635       -3.529906644692604
S           4.941134625809815        2.856310254588305       11.327284088026403        1.169659628018220        0.425498479946816        4.270364374116544
S           3.279068800297237        5.780607877809146        8.543066539408898        0.437484196906606       -0.182139086171376       -0.524393436109025
S           3.257833149074502        5.773584136240147       11.485911739882651        0.869159240736234       -0.618376811708716        2.270275078018440
