# total energy = -9699.44499704396 eV 

 CRYSTAL
 PRIMVEC
        6.529570993135899        0.000000000000000        0.000000000000000
       -3.264785496567950        5.654771719330517        0.000000000000000
        0.000000000000000        0.000000000000000       20.000062892833274
 PRIMCOORD
12 1
Mo          1.667032122402561        0.928196146515950       10.062971940090772       -0.623294562921576        0.000905800048252       -2.437365490666068
Mo          0.075049583080905        3.740144794439237       10.056239952396849       -1.722780012577753        0.302647259380453       -1.768597605594646
Mo          4.876240522505335        0.930027691179524        9.840200607646656        0.874682487013991        0.055466690380172        1.919984484450888
Mo          3.236853950730612        3.757664286370920       10.113297955563267        1.625514365216501        0.567014375137865       -2.114446873577896
S           1.693226802355724        2.774316118461448        8.451458148014449       -0.099724908633329        0.370324895457931        0.982323568705967
S           1.633654914356948        2.866343892038705       11.523033638895507        0.118393697024910       -0.923373546207228        1.486839797397926
S           0.033536529577845        5.676555674077817        8.283356301667462       -0.375722414734952       -0.561296239153444        1.701607225699108
S           0.025913255443359        5.651883037123154       11.482611023748300        0.515270643797909        0.048261427663113        0.344973292744989
S           4.938174809289428        2.828160266785044        8.453503862606597       -0.295033962409469        0.716644161308966        0.877912822468499
S           4.866539538880833        2.787244669027857       11.786917762140803        0.231595820227994        0.074411872485030       -2.490325868565299
S           3.296226686814098        5.704133317167327        8.261751257165374       -0.011071689377748       -0.527452536016517        2.315402072417790
S           3.244651564410615        5.709126480105778       11.572235262242984       -0.237829205516047       -0.123553903374160       -0.818307168370827
