# total energy = -9668.233884735158 eV 

 CRYSTAL
 PRIMVEC
        8.727297025957800        0.000000000000000        0.000000000000000
       -4.363648512978900        7.558057406905104        0.000000000000000
        0.000000000000000        0.000000000000000       19.999988775209427
 PRIMCOORD
12 1
Mo          2.098180969062968        1.307766259286319       10.094824324359069       -0.166974455843268       -0.067480689487367        0.478456800962599
Mo          0.047380495553925        5.093748000279451        9.831836828508557        0.226714578696330        0.286513579838080       -0.506760545643757
Mo          6.595010652847091        1.316202064591610       10.048663032199668       -0.089333790566316       -0.116735591855687       -0.319812980192677
Mo          4.338901389532094        5.001719525870429       10.066601991236524       -0.042764663759744        0.094508137989269        0.261217512978223
S           2.241060785053139        3.766568741488592        8.196456566164809       -0.244313273474280        0.217416179960872        3.159796950665381
S           2.082813944459661        3.793366779736498       12.055422946726621        0.202870414440072       -0.207554709381626       -3.191676587220249
S           0.086722277817240        7.486880190550499        8.180655794899312        0.124237302899637       -0.626317667368735        2.859906943546480
S           0.022733736022917        7.590752479753450       11.876707103688462        0.023813053894113        0.225443938946554       -2.875937521806041
S           6.645004973860291        3.721624034534612        7.994859495783994        0.294523083983164        0.046447513572731        3.113263047987849
S           6.464295816181403        3.767204961441784       11.883634832067667       -0.362428262792036       -0.251364527043198       -3.130515157904874
S           4.273396916244362        7.593194377461312        8.048329899202633       -0.091557281573208        0.207534397657580        3.098136470003523
S           4.478686505996860        7.502160814913248       11.800255109011371        0.125213036985108        0.191589437171527       -2.946075190486889
