# total energy = -9683.23969199074 eV 

 CRYSTAL
 PRIMVEC
        7.293967529316399        0.000000000000000        0.000000000000000
       -3.646983764658200        6.316758229576235        0.000000000000000
        0.000000000000000        0.000000000000000       19.999949555872629
 PRIMCOORD
12 1
Mo          1.798771896975494        1.067104531951977       10.041301668560667       -0.084906091834855        0.113536109652893        0.315998489839041
Mo         -0.012366921945956        4.189562315451718       10.008889465050643        0.201648882782608       -0.041241798677202        0.187615281240268
Mo          5.385787578194665        1.090319771804286        9.842982338422319        0.262210473462568       -0.300350749011171        0.243719862599638
Mo          3.610344706964937        4.216741097259455        9.843881684618683       -0.148739412748706       -0.112220475577701        0.360721563751362
S           1.831977684152706        3.143298107524503        8.090390008668434        0.081534859864184        0.086283946634338        3.913701555628224
S           1.747445706265200        3.179181510181727       11.890526668333194       -0.072490229124078       -0.189618171497401       -4.136071996483152
S           0.045813410051636        6.273469991083248        7.913716256570084        0.096823417420011        0.249605377474610        4.197368151664348
S           0.008262606417210        6.344288580618886       12.033876470980356       -0.283140033873530       -0.035595396503018       -4.362849824345497
S           5.494153324380966        3.168360179955234        7.927549995386186       -0.284344596242550       -0.166477204269803        4.184957688272622
S           5.451919064195965        3.172740936853341       12.029228025473923        0.135405922909854        0.078924674769137       -4.324763541987394
S           3.634675923849231        6.256450247250340        8.177256785562074       -0.160456706418580        0.140891116843831        3.558251012821852
S           3.597211918428403        6.297319076713853       12.084654884729197        0.256452742471781        0.176262827271918       -4.138648243001312
