# total energy = -9686.104122870298 eV 

 CRYSTAL
 PRIMVEC
        6.656943956970200        0.000000000000000        0.000000000000000
       -3.328471978485100        5.765079890335118        0.000000000000000
        0.000000000000000        0.000000000000000       19.999962657666302
 PRIMCOORD
12 1
Mo          1.710539028629652        0.967019632520485       10.067697759846640       -4.768287262917113       -3.627032681089848       -0.170666818742201
Mo         -0.016403375604370        3.828320597993330       10.112388487407364       -0.826266535981875        0.117770204229847       -1.017490619231016
Mo          4.971794512592433        0.988842426200224        9.802751390359225        1.668377502271300        0.641561230599145        5.466081372980675
Mo          3.294598119160057        3.865371150974639       10.120070600733706        4.959993942445156        2.080997063621191       -0.432961367315691
S           1.740912666822120        2.835867445390845        9.078723526156066       -1.568984266093902        1.178821758225271      -11.115836267184660
S           1.660347668277284        2.873828668305467       11.078816983304469       -0.317927332292059        0.130199950903895       11.245958056517544
S          -0.003827742775258        5.771749482485606        9.071164566292927       -1.468254312785973       -2.261888392871146      -10.283882962690940
S          -0.054461124206369        5.756244794315426       11.230653220935814        2.264492664426280        0.534603805543076        8.195515828566450
S           5.019932205734076        2.889218191345191        8.814418220371708       -0.574904322932555        2.685635436562302       -6.611231692057758
S           5.041785621356016        2.902280446777558       11.291970997417863       -1.332140564859702       -1.644160527890158        5.527538993512510
S           3.260055902661735        5.781390068724090        8.725448164386801        2.345890741541197       -1.005264504018283       -5.112284821576631
S           3.256923810529980        5.786237655313556       11.303331072280432       -0.381990509931184        1.168756141963847        4.309260811442582
