# total energy = -9475.856893273496 eV 

 CRYSTAL
 PRIMVEC
        4.204419078754800        0.000000000000000        0.000000000000000
       -2.102209539377400        3.641132032678625        0.000000000000000
        0.000000000000000        0.000000000000000       20.000118839462914
 PRIMCOORD
12 1
Mo          1.089901046737910        0.598850965737638       10.072068505293290        6.122386601242887       14.081410969865544      -30.816879073163598
Mo         -0.038181170537988        2.440842281260377       10.174592003203003       17.182555889021661        0.322861538572500      -43.827980199525491
Mo          3.202825127695608        0.574373678744943       10.063206851200999      -20.824140763393082        4.725849643625543      -29.924344123376308
Mo          2.091111975219027        2.460806124372028        9.968199593278376       -7.298788950312879      -20.914675773892817       -9.600631275712578
S           1.032334981595415        1.837393362818213        8.507274539632853       -3.106501043653755       -0.751231170701781      -29.037602642929702
S           1.075442469967980        1.842571104913699       11.255089025787459        6.114963565990809       -1.768308613470253       59.816602407632111
S           0.011503711041381        3.637131948367098        8.499336175970257        0.481028419493003       -0.878483607625217      -28.525032429988105
S          -0.004471820132164        3.649376057608248       11.232341016361858        2.982301535987468        7.334426255816142       70.968409966769840
S           3.164703239466631        1.830312280205774        8.752101646565917        5.276926514479853       -1.699337197704214      -47.362438984398132
S           3.177681440278931        1.790948406580932       11.202883594970377      -15.297900434667323       -3.036582175949649       68.348163883449530
S           2.138074915886810        3.634617705758003        8.743931619412081        1.811397750593862        6.169685921673369      -55.073999448325594
S           2.091415113834605        3.620795257594688       11.145713586105101        6.555770915217498       -3.585616047319597       75.035732176678451
