# total energy = -9671.084464878028 eV 

 CRYSTAL
 PRIMVEC
        7.994704042442199        0.000000000000000        0.000000000000000
       -3.997352021221099        6.923613568356005        0.000000000000000
        0.000000000000000        0.000000000000000       19.999959362479569
 PRIMCOORD
12 1
Mo          1.969870292475226        1.208481861466775       10.089690653711241       -0.406885484518751       -0.052624591676405        0.228222531373876
Mo         -0.029538033025611        4.644787938160600        9.947424895275983        0.283011992878915       -0.005791155346812       -0.243559939911584
Mo          5.971852846277709        1.117615654261186        9.939146379240034        0.349422845863082       -0.297857806272639       -0.112081121724124
Mo          4.034754444613260        4.661061957709395        9.975658192601868       -0.174219313566695        0.366252780452479        0.113292111853918
S           1.933255347431245        3.497356035173126        7.755747135436027       -0.028354909656918        0.119673335639769        3.778681812585662
S           1.942234199541312        3.442061464133979       12.059891926933824        0.017083445474318       -0.265313282143323       -3.909122418852930
S           0.094104062342779        6.885510009419321        7.852117696374838        0.164900088886330       -0.082878518976350        3.917751816247045
S           0.064195874520002        6.858790109568671       12.085357457720216       -0.193730138619651        0.086178788468078       -3.916877126560939
S           6.075547355589801        3.395260466669522        7.863893895429355       -0.032664080479710        0.093049293404035        3.928614731954858
S           5.958301023455364        3.400549762864002       12.197627086588232       -0.053176350661233        0.142907119732942       -3.805424125619636
S           4.001664364581592        6.964445719782375        7.990458854595662       -0.146001443769475       -0.116275107073848        3.888809923476258
S           3.907819330649789        6.937995241457954       11.999321650697070        0.220613348169787        0.012679143792074       -3.868308451932835
