# total energy = -9634.520833126258 eV 

 CRYSTAL
 PRIMVEC
        4.363648512978900        0.000000000000000        0.000000000000000
       -2.181824256489450        3.779028703452552        0.000000000000000
        0.000000000000000        0.000000000000000       19.999988775209427
 PRIMCOORD
12 1
Mo          1.132353261807634        0.624554175257726       10.137474188560072       -1.215902481687911       -2.485315300486865       -1.468170751895913
Mo          0.060055585389575        2.486309176968686       10.145578792943228       -2.586535306276192        0.602389428001555       -1.778446220652345
Mo          3.279064547807697        0.615538877429911       10.019290441329105        1.582950761813763        0.678306939170252       -5.320226996377706
Mo          2.195504294577639        2.505583412450514       10.009054194647359        3.297827971075277        1.801920402998460       -5.721262447260957
S           1.115316705283262        1.855613602793794        8.140699610925369       -1.223050151668437        0.052827966027290       -3.898276215323129
S           1.113540700338480        1.902506242443968       12.024321914680066        0.492261317110959       -0.240379226770250        7.385098865100743
S           0.012717417226226        3.812884070440499        8.027695078114457       -0.085169115805721       -0.715820379488188       -4.051393961600554
S           0.006045835014732        3.770964681000566       11.945107730494257        0.077643236381262        0.548246599230366        8.136703103037839
S           3.291990547432843        1.890389263253128        7.855251543448854        0.450574974498637        0.036920800774587       -4.611180191193004
S           3.282975685969880        1.903756427742936       11.901933355741992       -0.864291111836548       -0.352844728588651        8.172638913751440
S           2.157853426113103        3.747321124262693        7.868730417340595       -0.105582912692188        0.278455738931976       -4.711522164860623
S           2.144997244864165        3.791828157270821       11.900567097392578        0.179272304866237       -0.204708239800532        7.866038067274205
