# total energy = -9697.570136884588 eV 

 CRYSTAL
 PRIMVEC
        6.784369838529400        0.000000000000000        0.000000000000000
       -3.392184919264700        5.875433889412424        0.000000000000000
        0.000000000000000        0.000000000000000       20.000016987341937
 PRIMCOORD
12 1
Mo          1.741800116108490        1.010266618588268        9.804337090973021       -2.312951295789935       -0.644369904946889        4.518470797778691
Mo          0.087192721164780        3.876186612604275       10.095825505774487       -2.235845934430229        0.444986422171417       -0.600533347800497
Mo          5.020057826422700        1.006508077697722       10.087157794868782        1.464070097632625       -0.036608411600977       -0.841474103751952
Mo          3.387205870240203        3.901585936405760       10.134254211850868        1.086873154576151        0.329677278986664       -2.014291304972719
S           1.669402070250591        2.932678193227136        8.575295576638680        0.684810290410807        1.124150567518471       -1.343030991383628
S           1.728396915055491        2.965787953350111       11.486269213878392        0.121470794662570       -1.179762525292132        0.956905374391408
S          -0.066561452485812        5.896080762142020        8.619117178299710        2.004250371312666       -1.120855183124932       -1.822084802766902
S           0.068762980498415        5.819121584441678       11.577640428426724       -0.663278577370551        0.436803368485439       -0.372753817699155
S           5.024039573080934        2.945529146575278        8.272007107377064        0.245287207786734       -0.075110698636363        3.126586253409463
S           5.170172864091906        2.885207279029962       11.752649354344443       -0.430226740772063        0.258668520165744       -2.069962398145500
S           3.330487181516129        5.888877796684453        8.343555750131179        0.028835963273233       -0.074445553951485        2.004810614941715
S           3.423139285089974        5.842838384523209       11.607864117620387        0.006704925818423        0.536865606004180       -1.542642016890493
