# total energy = -9691.767711565055 eV 

 CRYSTAL
 PRIMVEC
        6.083633325403599        0.000000000000000        0.000000000000000
       -3.041816662701800        5.268578550632652        0.000000000000000
        0.000000000000000        0.000000000000000       20.000011477230910
 PRIMCOORD
12 1
Mo          1.555480402812503        0.834628256632101       10.097125469385531       -0.215011168989727        0.314793670359590       -0.083268041279246
Mo         -0.055782659050623        3.535819855991222        9.851047976642949        0.733140366558985       -0.341791294051500        0.026669807892444
Mo          4.530490254514715        0.830993285720172       10.191976613288565        0.341904422641120        0.417604161274799       -0.240797802551844
Mo          3.049932229557887        3.469465058947713        9.903849655364123        0.072658636456353        0.350156639033025        0.059478127323919
S           1.589833463474392        2.596670520285360        8.054169003478430       -0.554003816000292        0.070598153462687        3.838643307519775
S           1.569885229800394        2.605088443717721       12.037319026249913       -0.125851699295598       -0.043733712974010       -3.856972195921636
S           0.032753673460640        5.278493656226394        7.822871697899916       -0.252130973237872       -0.434964771793686        3.834216894340468
S          -0.025531792340054        5.250129324210032       12.008661463107266        0.253756425382365        0.078213507317118       -3.728949456147061
S           4.579418483897607        2.583928350285302        8.025007107133108       -0.032561750528190        0.263016771774041        3.797438275634200
S           4.589623778800971        2.669326744727323       11.975161936200932       -0.176073336884305       -0.427506255302137       -3.842053877386383
S           3.026670240811542        5.233731498944740        7.980156737168235        0.279835393504476       -0.127895470111252        3.945903094442647
S           3.088514632107598        5.280080876160993       11.971573200902276       -0.325662242496884       -0.118491398988673       -3.750308133867285
