# total energy = -9689.327166889027 eV 

 CRYSTAL
 PRIMVEC
        6.656943956970200        0.000000000000000        0.000000000000000
       -3.328471978485100        5.765079890335118        0.000000000000000
        0.000000000000000        0.000000000000000       19.999962657666302
 PRIMCOORD
12 1
Mo          1.603112595524045        1.006919357515377        9.874011978335403        3.360572429314038       -0.269698557653677        1.845688311659787
Mo          0.063487274517625        3.811057810924115        9.880166323023623       -0.461801958576682        1.716881127960372        2.425077668949907
Mo          5.062983993692593        0.932051371608916        9.835932261818346       -4.333459273872696        1.874992730138219        3.289701224573678
Mo          3.362787858888885        3.858607030219962       10.056046110838754       -2.887326228345156       -2.938306598815609        0.485284882677449
S           1.681833620592801        2.870556780350617        8.705652410141960        1.368880102780466        0.962223960766126       -6.587122704057617
S           1.637234093164287        2.861625158643550       11.237736209306030        0.206640938910014        0.039256906150236        5.304165821976860
S           0.028503702634955        5.803656880565760        8.664084454991450       -0.683119275106421       -0.456569247085902       -5.267940504918005
S          -0.001248176991932        5.783676063278914       11.198604695643771        0.089282111369695        0.024395666130655        3.824573196296240
S           4.960965661857629        2.929551283391682        8.977846860209722        0.262143367640089       -0.440670052256559       -8.759788892289480
S           5.001399273757871        2.826189580266202       11.298725798451001        1.099155319862831       -0.230357062171657        5.103262302333588
S           3.294923643719553        5.761534401983636        8.960761147849762        2.053385974441023       -2.470613211824044      -10.665960633058218
S           3.356648825171768        5.708454593648337       11.124942282287918       -0.074353508417203        2.188464081551411        9.003059325855810
