# total energy = -9681.982481679102 eV 

 CRYSTAL
 PRIMVEC
        6.911795720088600        0.000000000000000        0.000000000000000
       -3.455897860044300        5.985787888489730        0.000000000000000
        0.000000000000000        0.000000000000000       20.000075772584175
 PRIMCOORD
12 1
Mo          1.755673525014569        0.986582809289727       10.088757004975573       -0.052056891844858       -0.048139557318841       -0.200343276014223
Mo         -0.039450456431550        4.025241135356442        9.961923479973230        0.334926959765886        0.102535125643658       -0.047374396676321
Mo          5.217438808445653        0.999420778660219       10.187589463156691       -0.136432050639792       -0.267307687756235        0.486462705561650
Mo          3.424607469639887        3.986492917370054        9.855416855004098        0.004144620146981        0.195613215415959       -0.278739074626888
S           1.762178907146317        2.946237249595551        7.820378914677127        0.066989351453814        0.348787268877763        4.550869283183224
S           1.685782137872606        3.051093337746727       12.043877998468590       -0.015066157033052       -0.330035690927414       -4.462124018393362
S          -0.035922675896016        6.005455403211242        7.942524168642533       -0.000868776146194       -0.299723399559642        4.510099282146823
S           0.075639927642362        5.960597157808295       12.121478111377169       -0.067963285766268        0.268847522127219       -4.519144941328652
S           5.215235327970088        3.008417837432184        7.654047933032339       -0.136496328247531        0.319074559034976        4.284130323700261
S           5.116973092935877        2.991237186810760       12.266270555199018        0.232430657797303       -0.359824762568194       -4.351356988081846
S           3.504026767181993        5.953181492180212        7.869932342912730       -0.038965857142396       -0.326234570316188        4.438750366225750
S           3.517559372022354        5.945570913912823       12.035478784309539       -0.190642242343892        0.396407720236507       -4.411229522806848
