# total energy = -9679.22691352725 eV 

 CRYSTAL
 PRIMVEC
        7.548819292434800        0.000000000000000        0.000000000000000
       -3.774409646217400        6.537466227730848        0.000000000000000
        0.000000000000000        0.000000000000000       20.000053200316945
 PRIMCOORD
12 1
Mo          1.945953509252074        1.070187052505331        9.953011798723260       -0.354954576785061       -0.766281386888114       -0.806615585744048
Mo         -0.045290651108821        4.305955982284551       10.089591831299355       -0.768568384171451        3.173926454398467       -0.366764944430940
Mo          5.744822084858892        1.024818648557798        9.879306636915786       -2.944502188870311       -0.136485272499000       -0.201979526796815
Mo          3.821354998515123        4.327886057211003        9.945112714215657       -1.417677348581687        1.766214706120563       -0.401499792321554
S           1.824422802817378        3.300426076782782        9.207469268708380        0.447832634642080       -0.073818718720818      -17.459505217938677
S           1.849943851081242        3.267840843425058       10.873229477873506        1.047266321129386       -0.303953637480131       17.768139807924758
S          -0.027630188374170        6.542594895558128        9.042043687852034        0.936900640200588       -0.444132044209357       -3.679293461506453
S          -0.072676257737916        6.543675131598875       11.162537222374139        0.801522742327708       -0.201577663193234        4.199938998863458
S           5.657804580229208        3.257489902411271        9.197975118684285        0.778900623949775       -0.971376577887232      -14.489691021361788
S           5.600229735485808        3.264829619409305       10.910243603510100       -0.217296109389617       -0.885435102346925       14.928952365567151
S           3.740268601203505        6.544833120478335        9.118266380893537        1.266693361770751       -0.720083270433408       -7.615033494834344
S           3.821572404510745        6.534835464207434       10.982314445940764        0.423882026667407       -0.436997486860810        8.123352129689684
