# total energy = -9672.385916429894 eV 

 CRYSTAL
 PRIMVEC
        5.191810907663900        0.000000000000000        0.000000000000000
       -2.595905453831950        4.496238041309629        0.000000000000000
        0.000000000000000        0.000000000000000       20.000080883695549
 PRIMCOORD
12 1
Mo          1.241055151997795        0.771714407582797       10.050224486081255        2.012799036031461       -0.535581596511995       -0.052067690482958
Mo          0.014809121433021        3.012400831742200        9.856507637494499        1.325465206740839       -4.255939193387860       13.677374011811334
Mo          3.901083104807030        0.706340162995675       10.042383813248501       -1.076932493984170        3.348131112670597        4.740628094086358
Mo          2.603233175747027        2.968424635811015        9.822203785284291       -5.115295841833536        1.045643440089203       13.627180656370031
S           1.273100047282079        2.244133267421001        8.274995850959009        0.277975713757385       -1.359306595883888       -5.867226867128374
S           1.262969785839045        2.219441533925242       11.593935216579135        0.626295298761242        2.708860221790391        4.977763872770121
S           0.010974449896620        4.480876511196033        8.592912757622171       -1.313897294231350        5.101010272068860      -14.531241095445706
S          -0.043304894780825        4.513884487403688       11.632084123947561       -0.075121754384894       -1.448657355738647        4.649216851237932
S           3.884440235761422        2.262535122002125        8.579856391551578        2.025493606449392       -4.897726166945383      -16.846705131477353
S           3.870552141583422        2.211806975985522       11.719253071543964        0.066598286488333        1.485443944868276        2.059331653156838
S           2.562509649349493        4.520143734633967        8.504504005581017        0.583217988717458        1.570156946769484      -11.532540541951120
S           2.558889399603578        4.538002525794150       11.653086556612333        0.663402504598271       -2.762035286899469        5.098285929942470
