# total energy = -9681.33148372118 eV 

 CRYSTAL
 PRIMVEC
        5.191810907663900        0.000000000000000        0.000000000000000
       -2.595905453831950        4.496238041309629        0.000000000000000
        0.000000000000000        0.000000000000000       20.000080883695549
 PRIMCOORD
12 1
Mo          1.353624515278855        0.728315021843453       10.135188471585174       -1.810886615057125        0.332917898858410        0.565281707943665
Mo         -0.041121738294152        2.981501769125238       10.180725325875203        0.736503628106296       -0.277668981013256        1.355651513997443
Mo          3.858271432062433        0.775773365350409       10.083440134725215        1.055522908398617       -1.089379724167523       -2.721817301958326
Mo          2.610169435119666        2.978153570270886       10.182829566836080       -0.890476009456212        1.287795957501745       -0.575168375345145
S           1.275539679227590        2.224683705398710        8.088439547976103        0.058823524166710       -0.230385087208631        0.915515222995545
S           1.252067502114041        2.258678125678821       12.000487238239026        0.408202918366960       -0.208383890521453       -1.167125804721166
S          -0.034151732150613        4.464163552703172        7.844861585794325       -0.113233490675660        0.391986192155389        0.412677925417718
S          -0.048946835694183        4.509493253737985       11.939930994174217        0.753505312463571       -0.028019894765385        0.027809578432864
S           3.884763685580970        2.253397534804636        8.168342556207232       -0.166727629829552       -0.105342771549677        1.392042153063402
S           3.884783414462419        2.276307438796885       12.194003682924748       -0.268145353540283       -0.021652297832374       -0.933500868972082
S           2.545602517128685        4.515864644083870        8.015986269216381        0.289145876430188        0.162892056420578        1.485586126936593
S           2.596260054516943        4.508184917389254       12.118447258785515       -0.052234555152647       -0.214759457877823       -0.756951877790511
