# total energy = -9687.682337858683 eV 

 CRYSTAL
 PRIMVEC
        5.446609753057400        0.000000000000000        0.000000000000000
       -2.723304876528700        4.716900211391535        0.000000000000000
        0.000000000000000        0.000000000000000       20.000032712373070
 PRIMCOORD
12 1
Mo          1.328111670744047        0.778931643326196       10.183809478998580        0.508154084179529        0.321453087631733        1.921768059510417
Mo         -0.054737883357252        3.142180212214406        9.898988825859998        1.709331080155402        0.550109621413060       -0.038796678478828
Mo          4.126928889550110        0.800066123150984       10.079188275556977       -0.662136492836252       -0.730242732002131        0.856611480374378
Mo          2.777734481773928        3.109057199662163        9.860206241113353       -1.809322098084769        0.529778871195790       -0.663863503600971
S           1.321663974118378        2.374359652784448        8.018207484829317        0.416945958571557        0.039329411291765        2.065666597065118
S           1.404209523569864        2.328335800371113       12.124281850295944       -0.126642570981213        0.322282782992422       -1.708325778370372
S           0.017538628065820        4.752144678442594        8.117928373476094       -0.105571599833226       -0.011321857827067        1.427507708798789
S          -0.034050025532214        4.737084802475390       12.041197086478906        0.463041230853881       -0.262523891077901       -2.215751982919869
S           4.117799282282036        2.382188064982517        8.180029528558503       -0.413675256779389       -0.602957899164395        0.251797501008925
S           4.089275931666249        2.319663163661320       12.102727981520170        0.080792839160450        0.084255088223679       -1.260471032231229
S           2.687004856507498        4.748149590188727        8.100221445168904        0.298251956563292       -0.301789796093221        1.405813759076600
S           2.739858212890192        4.713271135313073       12.103850527790275       -0.359169130969261        0.061627313416265       -2.041956130232956
