# total energy = -9681.807710228824 eV 

 CRYSTAL
 PRIMVEC
        5.191810907663900        0.000000000000000        0.000000000000000
       -2.595905453831950        4.496238041309629        0.000000000000000
        0.000000000000000        0.000000000000000       20.000080883695549
 PRIMCOORD
12 1
Mo          1.352657800087848        0.719616142667662        9.926795931105724       -1.150824232067380        0.618770190668076       -2.493302178914025
Mo          0.037475529493700        2.970201273503617        9.916820904808830       -0.411307269710301       -1.133440738720138       -1.573776290306026
Mo          3.887001356082173        0.743514567456730       10.058007010631844        0.435890883565983        0.087705510207084        1.127010921062836
Mo          2.603038482837990        3.011624136830414       10.079741488634596        0.526084965634272        0.302622062558220        3.351717031851115
S           1.319739642208896        2.246685042482118        7.890378711202905       -0.159372471731247       -0.152450030488237        1.228901727966523
S           1.332968376401623        2.240181780139178       11.881859031628725       -0.694315405932751        0.007333046601244       -0.533877468575631
S          -0.016929976188801        4.451054749342411        8.135240608222148        0.489297862283782        0.147947769731798        0.529947535638496
S          -0.061123189815927        4.536122571064484       12.255493933771847        0.317141088594201        0.166723773173088       -0.309204089590646
S           3.845600298361189        2.277705074293228        7.771582289919193        0.181537190652512        0.056575350558447        0.353617345433668
S           3.883404988666434        2.250217031442602       11.963635245235338        0.497893321101010       -0.059655533521277       -1.311476342413485
S           2.542243934652517        4.519775116059523        8.062018941448093        0.185324427300467       -0.065831583183227        0.833544560950894
S           2.582626878254509        4.475890296000313       12.056767506840286       -0.217350616800979        0.023700696635786       -1.203102238882858
