# total energy = -9698.945061791093 eV 

 CRYSTAL
 PRIMVEC
        6.402145111576700        0.000000000000000        0.000000000000000
       -3.201072555788350        5.544417720253212        0.000000000000000
        0.000000000000000        0.000000000000000       20.000000427745366
 PRIMCOORD
12 1
Mo          1.636336433143601        0.926174645354888       10.043265270322207       -1.030928495904835        0.423180629411764        0.107965555055841
Mo         -0.033867347640241        3.739701029388077        9.854667678552826        1.164845492309034       -1.934044311257185        3.683340893910533
Mo          4.819596940802522        0.919382609606017        9.970607325450924       -0.624224274239906        0.572746652195988        1.184703159333348
Mo          3.162059804121935        3.682282750740390        9.877255086720979        0.597288614161856       -1.062429151684477        5.809022464879402
S           1.623719725772216        2.717238761769586        8.492974947907220       -0.649894950997663       -0.125517969956219       -2.550764046238401
S           1.561667574492771        2.761503833285539       11.501385189994847        0.007706113836558        0.824338721970580        0.238471981593432
S          -0.033568367463530        5.495593040988794        8.452850143634924        0.390795513749640        1.693188401747945       -2.449328324797504
S           0.000170297059968        5.542783252606226       11.330661747162477        0.839767918932140       -0.690302940547281        3.510725692322561
S           4.802060825127403        2.799047932863358        8.531784751573596       -0.553406805579616       -1.031345786134274       -3.549702605213489
S           4.795469176520522        2.760517902938356       11.516607570426643       -0.124868251897198        0.469036017662008       -0.323979454726289
S           3.259896105288028        5.521330944766355        8.717293948541156       -0.225600004978143        1.393984365258830       -5.613155738578522
S           3.171623328489608        5.564378968496597       11.591553001746293        0.208519387718566       -0.532834628667681       -0.047299834651344
