# total energy = -38802.74856720057 eV 

 CRYSTAL
 PRIMVEC
       12.740577282373799        0.000000000000000        0.000000000000000
       -6.370288641186900       11.033658440967770        0.000000000000000
        0.000000000000000        0.000000000000000       19.999979849788435
 PRIMCOORD
48 1
Mo          1.590438113601927        0.918229967491147       10.037631960474991       -0.022860459747427       -0.114708533218044       -0.950933470411636
S           1.669271709594343        2.791828685251560        8.409321206843481       -1.216315143929593       -0.603854443237132        0.247726414445197
S           1.511603243551783        2.722526315124088       11.531320678310028        1.254644909865808        0.545433296894866        0.863856852318666
Mo         -0.002132772637069        3.676646488819681       10.054161585441143       -0.182910674574669       -0.100940526750880       -2.499757450503991
S           0.047938970140388        5.566997791648688        8.415068481255558       -0.828419835841116       -0.685777539852057        0.186508163724580
S          -0.052204515414527        5.464186429210844       11.537060308375738        0.768208172457685        0.809252510323914        0.661346649592361
Mo         -1.594704932933794        6.435060462032760       10.019891980667014       -0.015492189017143        0.023647988997440       -1.101158467230395
S          -1.620358085291854        8.293951457378402        8.443255734435082        0.349230784371159       -0.299421551913702       -0.264685675581364
S          -1.569051780575734        8.254059435849559       11.565250109670718       -0.284858045773166        0.264077352301727       -0.056990841014869
Mo         -3.187278367288247        9.193475709303566        9.966956156116479       -0.038563993538815       -0.047643591297530        1.312460818253609
S          -3.264595834584061       11.002200681599861        8.467446268521126        0.664973963552262        0.439695089502381       -0.583699042333773
S          -3.109960899992434       11.062640706169713       11.589450836218587       -0.697079600175940       -0.359515972940618       -0.325310001206477
Mo          4.775582434195377        0.918231241548875        9.986616140920910       -0.030532635007100       -0.004073400557607       -0.178154645822879
S           4.711313866152171        2.745734550701660        8.460280967857519        1.055112560150814        0.121722762884905       -0.603262575025076
S           4.839853550354040        2.768616627500803       11.582280439324068       -0.925569012177146       -0.249804895169030       -0.200101592209126
Mo          3.183010273898652        3.676646488819681        9.947533146049500       -0.040253466180614       -0.068193656712403        2.726220060977985
S           3.109334063590141        5.466417304292988        8.469627455351869        1.161769166002667        0.806442036203154       -0.803011925943795
S           3.256683936091707        5.564763094393360       11.591630748991602       -1.181276905730452       -0.742821602726133       -0.173864501171978
Mo          1.590438113601927        6.435059187975031        9.957651712527163       -0.069203329374760        0.034269478010587        2.189901585970876
S           1.576456604092250        8.233219673588781        8.450241392959008        0.246198664264467        0.661316053451078       -0.304090420229399
S           1.604415800938420        8.314791219639179       11.572240864425558       -0.254212282176446       -0.535283348412088       -0.056693364246255
Mo         -0.002134046694798        9.193474435245838       10.007481384336254        0.011577939816297        0.003085839392312       -0.372426516120551
S           0.056691746733379       11.038280722405815        8.420307406634072       -0.672996837439756       -0.145940508597339        0.011230840734509
S          -0.060962388238430       11.026570857825584       11.542300507811978        0.701322436507545        0.104305588071208        0.198529361923842
Mo          7.960726754788827        0.918229967491147        9.985759974127534        0.001099918423622        0.027712390689963        0.798371082665072
S           7.994336397659730        2.742543036092425        8.431423560312941       -0.473947084003663        0.196272446560926        0.049227391552208
S           7.927114563802468        2.771811964283223       11.553420483664034        0.559884188666644       -0.226016009655427        0.261280505033807
Mo          6.368155868549830        3.676645214761953       10.037601383089514       -0.006327487705782       -0.063112383265456       -1.956129840165716
S           6.446983094253604        5.550219725425530        8.409326303074394       -1.210551756509324       -0.596010775320013        0.154052599804374
S           6.289326094730598        5.480965769491731       11.531320678310028        1.280705623147322        0.515931674715892        0.766445937563925
Mo          4.775583708253105        6.435060462032760       10.054171777902969       -0.069242410160265       -0.013638679920394       -2.820322992928070
S           4.825694946820137        8.325416861092679        8.415054466620548       -0.832366995177124       -0.697317941545434        0.152318904168450
S           4.725472469686072        8.222595306193011       11.537050115913912        0.779814394421386        0.864517111905356        0.616927480209427
Mo          3.183011547956380        9.193475709303566       10.019921283994764       -0.034362037765731        0.023892501017277       -1.054754919541357
S           3.157406809791994       11.052401104207869        8.443235349511431        0.460329487138607       -0.239529991016809        0.065318647873474
S           3.208617560178495       11.012440283561704       11.565229724747066       -0.425064220428934        0.217363986543389        0.250577254903616
Mo         11.145871075382276        0.918231241548875       10.038271537454568        0.008982410015815       -0.070395550443095       -1.405890635095456
S          11.151340605209599        2.794221365665190        8.430952158953493        0.199606911739970       -0.383185816324690        0.328634181968283
S          11.140410463959052        2.720131086595002       11.552950356362315       -0.221050950123271        0.489187304798471        0.549294324236504
Mo          9.553300189143279        3.676646488819681        9.986649266421844        0.008643795578248       -0.018257668812486        0.626888195415022
S           9.489058376312366        5.504181649415672        8.460266953222510        1.035885327903200        0.068794523789543       -0.604375606080676
S           9.617539453858736        5.526998749270676       11.582260054400416       -0.882705618011916       -0.168717664565138       -0.234887347965070
Mo          7.960726754788827        6.435060462032760        9.947542064453598       -0.029527847442931       -0.056971043511685        2.882848393079658
S           7.887032707672121        8.224841469967894        8.469630003467325        0.918002509304596        0.656919979302623       -1.088745689844790
S           8.034419527847804        8.323166875144612       11.591630748991602       -0.756406803676889       -0.491679990426572       -0.632104708948652
Mo          6.368153320434374        9.193474435245838        9.957630053545783       -0.057485521484024        0.024303106375511        2.304896797319434
S           6.354124670788751       10.991610713762752        8.450260503824932        0.122225156666989        0.837355451758497       -0.111418291033124
S           6.382181970079996       11.073230674006822       11.572259975291480       -0.128635948152400       -0.752685130188827        0.177908848250887
