# total energy = -9488.07694174139 eV 

 CRYSTAL
 PRIMVEC
        4.013280256416000        0.000000000000000        0.000000000000000
       -2.006640128208000        3.475601034062666        0.000000000000000
        0.000000000000000        0.000000000000000       19.999977480556058
 PRIMCOORD
12 1
Mo          0.953846753071057        0.611667254504568        9.901115561240836       17.256989101672460       -5.855955917166637       10.572674283836843
Mo         -0.011366011014196        2.293336428557564        9.852635537071356        6.944716005195560       21.755246905811259       26.326470593371400
Mo          3.020063224029501        0.597247538543265       10.033573876103846      -16.828884550397493       -6.173881963906541       -4.766392359040982
Mo          1.975808503966110        2.325302607127943        9.834799716955793       -0.525563802790728       -2.366912347486440       20.739530348553828
S           0.999367785707481        1.740195241360336        8.537312229976884        0.211612169092513       -0.649389471890407      -55.966894609826660
S           0.996431268543862        1.755372664634050       11.497188290000913        0.108847186723582       -0.140972877960874       30.226459164164684
S          -0.013850632820943        3.502054169544806        8.414207667407503        2.325810159773245        1.016938346025326      -35.307586829497431
S           0.015946769098869        3.502344731035371       11.398033780017746       -7.149863646722594       -4.175743878868948       38.038878907946845
S           3.064448097025334        1.703456068581002        8.697968253249497       -6.049099844003712       -6.741841219878163      -67.332336511596353
S           3.018732821624499        1.707630682703726       11.462252284040789       -0.523554227662390        7.312807639450225       35.277976963827022
S           2.022038683223843        3.487104700589656        8.526226747252611       -3.729273929510925        1.833520560514882      -49.216890647986567
S           1.979853890464577        3.462265305098621       11.278257029436986        7.958265378630479       -5.813815517533250       51.408110696247370
