# total energy = -9675.359579703974 eV 

 CRYSTAL
 PRIMVEC
        8.727297025957800        0.000000000000000        0.000000000000000
       -4.363648512978900        7.558057406905104        0.000000000000000
        0.000000000000000        0.000000000000000       19.999988775209427
 PRIMCOORD
12 1
Mo          2.254375149395940        1.213447742137685        9.964455961385308        0.037755381233464        0.253643553903176       -0.491075266692968
Mo         -0.046185728591071        4.975267088584751       10.039196533115613       -0.121507047233334       -0.273450313062160        0.201562750788239
Mo          6.476777596387928        1.309466336746976       10.156792496891880        0.164400266208555        0.168755974019350        0.162583266793002
Mo          4.314347139349562        5.014182978753199        9.980964516439611       -0.174755131704803       -0.115809222972959       -0.269414193517042
S           2.234978731755748        3.734961089849680        8.611043320464123        0.387241733372991       -0.155813549145979        1.217040195344884
S           2.129457856144596        3.751912991592901       11.412834684894456       -0.153664363053633        0.143403599975115       -1.248186038729809
S          -0.052455418774519        7.525650334858614        8.336329828329538       -0.475765368971371        0.176229402915894        2.443102652822379
S           0.056057174257132        7.502182633155813       11.676129381600280        0.206511612363245        0.281099091272616       -2.344673066540198
S           6.594880616121404        3.773260832848096        8.551078062598767       -0.005483137050528        0.185457867614132        1.374871032932129
S           6.561085031118085        3.740088376852431       11.376639093208999        0.141629795111962       -0.462081694725560       -1.238698149606738
S           4.240582279426762        7.627826910249421        8.324955542115607        0.117161880950209       -0.102971956265849        2.129509945285777
S           4.389018765433359        7.483550726735096       11.548308516628399       -0.123525364116325       -0.098463010638206       -1.936623128879655
