# total energy = -9653.3370691893 eV 

 CRYSTAL
 PRIMVEC
        4.554734417592800        0.000000000000000        0.000000000000000
       -2.277367208796400        3.944513873995805        0.000000000000000
        0.000000000000000        0.000000000000000       19.999888929728577
 PRIMCOORD
12 1
Mo          1.181160146629787        0.644714002814867       10.104644600394936       -1.058417200519868        1.679407539759233        3.315190124256750
Mo         -0.015144491938496        2.652297915429061        9.802881602919928        0.236977655768727       -1.973474766948315       -2.439899571073552
Mo          3.415768875134151        0.624177616272825       10.068418064731169        0.418492734924177        3.120239225310928        2.680047912676806
Mo          2.264181252657469        2.653708061204748       10.024215278155317        1.046472878339462       -1.727600576047712        1.566274836372507
S           1.127903914452083        1.937250614684609        8.084848078386852        0.961487082271011       -0.505626431532818       -4.020721458519015
S           1.166552202405683        1.966180465811392       11.940659866020361       -0.638963643915216        0.899415482030058        2.651864752787766
S          -0.011863261264062        3.975049724478230        7.946079440359494        0.222329817406837        0.089609412948299       -4.540769985455345
S           0.000615344619817        3.924482152027232       12.114100508854762        0.139305002595274       -0.616145864499327        3.598734335727740
S           3.400847565182117        1.969577386740032        8.054128216633956       -0.909169223338735       -0.697346480803270       -4.721275134838007
S           3.435661677702988        1.942700809888701       12.232468035952280        0.000603952402311        0.246632152451056        3.114889014353203
S           2.306873233827008        3.943295938012541        8.060415572024000       -0.345100562408311        0.043767651550896       -4.040357753462277
S           2.278313682608376        3.948487424301713       12.092174928315353       -0.074018493525670       -0.558877344219028        2.836022670062993
