# total energy = -9570.107922905589 eV 

 CRYSTAL
 PRIMVEC
        4.013280256416000        0.000000000000000        0.000000000000000
       -2.006640128208000        3.475601034062666        0.000000000000000
        0.000000000000000        0.000000000000000       19.999977480556058
 PRIMCOORD
12 1
Mo          0.992948142609318        0.604748760670532        9.906787931555254       -0.780461284265667       -7.827991894143333        5.086635484984645
Mo          0.046913640885400        2.285478827143527       10.159130151581870       -8.036680974746327        4.902110671124445        3.801141951392094
Mo          2.990508224237177        0.575837892359363        9.945036097711002        2.396016476939158        0.824524612812160        4.302259694407701
Mo          1.999933936899529        2.282315960973445        9.948026794158082        6.377094335219781        4.609160845868290        2.548874541681319
S           1.030079412869705        1.717996182949997        8.201836916078737       -2.265943538588155        1.514280679472802      -17.564682153260385
S           0.957936285652345        1.750729700705403       11.843362607734640        4.197574097119542       -2.268397143430751       16.118622641316101
S          -0.000935094299745        3.461070150238261        8.354507314297136        0.529570868857149       -3.946768271042807      -20.149686109809817
S          -0.013067641842916        3.489843363036635       11.864409854711388       -1.066571200727148        3.019737843176118       13.081758415223694
S           3.024573749709687        1.733768775685737        8.161019046574806        1.708312151517531        0.519332217275692      -15.310821005154063
S           3.033517746089136        1.746939558831244       11.866950662441726       -3.823081955796706       -0.976815491943636       14.356538928489678
S           1.997563292252064        3.454548168493559        8.272366303304992       -0.511703493678851        0.105211645229891      -19.026848348151798
S           1.971129420515154        3.472407265634610       11.726887181492806        1.275874518149693       -0.474385971509302       12.756205958880829
