# total energy = -38803.36200363573 eV 

 CRYSTAL
 PRIMVEC
       12.740577282373799        0.000000000000000        0.000000000000000
       -6.370288641186900       11.033658440967770        0.000000000000000
        0.000000000000000        0.000000000000000       19.999979849788435
 PRIMCOORD
48 1
Mo          1.590438113601927        0.918231241548875        9.999321044586894       -0.071594456382634        0.052211672324293       -1.582869514917581
S           1.576663001444225        2.731935231447121        8.384056642092533        0.171163556094804        0.337641531695900        0.596539394366055
S           1.604213225759630        2.782419768928527       11.506049743270442       -0.220070330939612       -0.394563981336135        0.810918071695635
Mo         -0.002134046694798        3.676646488819681        9.999378377184664        0.061124919634180       -0.057580909453908       -0.501477440508511
S          -0.009735075101462        5.504609732812360        8.525656692066564        0.085724217226151        0.167847088645927       -1.176744305943161
S           0.005465707654138        5.526571939931715       11.647649793244472       -0.057149735261198       -0.119714216198291       -0.878322142274578
Mo         -1.594706206991522        6.435060462032760       10.000962030940864       -0.073527926823409        0.029362011214965        0.705327445690518
S          -1.577252890172399        8.304563084196889        8.451989400162150       -0.239662145778319       -0.421288296639941       -0.245756177212795
S          -1.612160797868375        8.243447809031071       11.573990145686427        0.209929381321918        0.413391149753184       -0.093910870458162
Mo         -3.187277093230519        9.193474435245838       10.000141537763879        0.097499617853420       -0.034211371053192        0.114263217951632
S          -3.188125615677525       11.028610624248493        8.346042581655114        0.046427458959117        0.022828320943558        0.977619476261230
S          -3.186431118898970       11.036230763521081       11.468040779063935       -0.054442619533682       -0.031869609248061        1.307996352730521
Mo          4.775582434195377        0.918231241548875        9.999378377184664        0.088004786748714       -0.055377730171062        0.287877293563860
S           4.767981405788713        2.746195759599282        8.525656692066564        0.115214269435731        0.128479110789518       -1.171782331736177
S           4.783183462602041        2.768157966718638       11.647649793244472       -0.085706219495984       -0.088630079316795       -0.879620035730035
Mo          3.183011547956380        3.676646488819681       10.000962030940864        0.004803079960655        0.089319649492614       -0.065650577439836
S           3.200464864775504        5.546147836926083        8.451989400162150       -0.238679212600782       -0.401607778702555       -0.225064958171328
S           3.165556957079529        5.485033835817992       11.573990145686427        0.211865165756572        0.391168580984954       -0.074743287830530
Mo          1.590438113601927        6.435059187975031       10.000141537763879        0.044631285488471       -0.055396756342953        0.005583153008170
S           1.589592139270378        8.270197925093143        8.346042581655114        0.002138387454246        0.045709349525462        0.918169116863854
S           1.591285361991205        8.277814242192546       11.468040779063935        0.000088445988248       -0.066131116835289        1.230922615953822
Mo         -0.002134046694798        9.193474435245838        9.998952841903433       -0.064036695264736        0.007900489322359        0.057113996911296
S          -0.019178390983157       11.003710440007820        8.470985600890168        0.243913980975008        0.411633799957613       -0.484279580892418
S           0.014910297593562       11.061130947761752       11.592979976125806       -0.237426056360311       -0.360448255363258       -0.315893588783212
Mo          7.960726754788827        0.918231241548875       10.000962030940864       -0.057602763840539        0.021314454726100        0.624937498575373
S           7.978180071607952        2.787733863713005        8.451989400162150       -0.251022055949167       -0.411950045787686       -0.250816367604404
S           7.943272163911975        2.726619862604915       11.573990145686427        0.222929398931823        0.404794405383801       -0.101437264103483
Mo          6.368155868549830        3.676646488819681       10.000141537763879        0.047399593498554       -0.055809675695065        0.023095972902181
S           6.367307346102824        5.511783951880065        8.346042581655114        0.001812114317365        0.046160578331786        0.918782582352111
S           6.369001842881380        5.519398994921739       11.468040779063935       -0.001373226811726       -0.065032998184684        1.230592743270908
Mo          4.775582434195377        6.435059187975031        9.998952841903433       -0.064919612484633        0.009879468309414        0.021329110020664
S           4.758538089907018        8.245292644621559        8.470985600890168        0.230343949539679        0.397803315655726       -0.452510758933291
S           4.792625504426009        8.302719522664130       11.592979976125806       -0.217207663401369       -0.345888091658324       -0.286641620832695
Mo          3.183010273898652        9.193474435245838       10.000351757289037        0.079699091387171        0.034290818176357       -0.003073240981195
S           3.192105772020539       11.050120540874325        8.516461817441876       -0.151893900626083       -0.237923307933776       -1.046077442496654
S           3.173914775776765       11.014710654433424       11.638460014850695        0.115341539099054        0.179079986263883       -0.776946584674524
Mo         11.145871075382276        0.918231241548875       10.000141537763879        0.056888253952918        0.004521544038760       -0.638461764353993
S          11.145020004819814        2.753368704609258        8.346042581655114       -0.011384078551357        0.054490699184270        0.982872242365624
S          11.146720871887011        2.760985021708661       11.468040779063935        0.009572221344423       -0.068920250790280        1.300730411951756
Mo          9.553298915085552        3.676646488819681        9.998952841903433       -0.070933168354220        0.015693506484580        0.043780764182875
S           9.536254570797192        5.486877397350752        8.470985600890168        0.236332051476601        0.418104755283867       -0.485913517681132
S           9.570343259373910        5.544305549451051       11.592979976125806       -0.228678131057527       -0.367705454387370       -0.318233550815325
Mo          7.960726754788827        6.435060462032760       10.000351757289037        0.079882668234872        0.030991577126353        0.014455262649105
S           7.969822252910713        8.291710389834432        8.516461817441876       -0.104337212654215       -0.245786002022786       -1.039490016145178
S           7.951629982609212        8.256300503393529       11.638460014850695        0.073407342031292        0.188493313361977       -0.778354778504860
Mo          6.368155868549830        9.193474435245838       10.000861380380334       -0.064886445239040       -0.086170303823856       -0.071481070682583
S           6.380797069329401       11.052560361423899        8.369509450951519       -0.180999572741387       -0.270461661412749        0.761343838172070
S           6.355512119654803       11.012270833883848       11.491510196475796        0.211396967661805        0.339356972491226        1.011302999599673
