# total energy = -9685.253125232515 eV 

 CRYSTAL
 PRIMVEC
        5.828834480010100        0.000000000000000        0.000000000000000
       -2.914417240005050        5.047916380550747        0.000000000000000
        0.000000000000000        0.000000000000000       20.000054246341612
 PRIMCOORD
12 1
Mo          1.424143390647772        0.814801697175100        9.922535683176312        0.158716840132313       -0.346410540054023       -2.116133775115387
Mo          0.059378336847863        3.319542220169880       10.177532036707106       -0.147369785483013        0.367716253025470        2.302214621303720
Mo          4.339353935025551        0.830478930392535       10.154270906947730       -0.174235254413414        0.031455404343794        1.901393086299023
Mo          2.874337008353605        3.369174162883718        9.995449739453655        0.090689276758307        0.219470749414627       -0.525959238633535
S           1.441418890279626        2.497376373512735        7.664028443955079        0.380065009913768       -0.000628892114114        3.030911091174093
S           1.467682452679655        2.569330420751220       12.303745717036238       -0.204652961057877        0.469210081423764       -2.849284426091609
S           0.011383713739460        5.011525218241699        7.905892433402411       -0.067923947870332       -0.022675340237140        3.448682374229012
S           0.020943585170124        5.042303795829945       12.143717980804801        0.266250706774582       -0.267970775557665       -3.790626134766069
S           4.345902047680394        2.531656331973123        7.646258659159321       -0.314377922792737        0.306194869106759        2.108324559996016
S           4.351635289274932        2.572820143954402       12.385771990256181        0.327826598104656       -0.240287438346400       -3.520497431361405
S           2.961356261189124        5.040067854923413        7.823985068405861        0.046636746849913       -0.359315941025336        3.679841363834816
S           2.915230945298459        5.037249613452328       12.098885500401805       -0.361625564026597       -0.156758429979736       -3.668865833758244
