# total energy = -9690.41605784452 eV 

 CRYSTAL
 PRIMVEC
        6.083633325403599        0.000000000000000        0.000000000000000
       -3.041816662701800        5.268578550632652        0.000000000000000
        0.000000000000000        0.000000000000000       20.000011477230910
 PRIMCOORD
12 1
Mo          1.555119643356307        0.830577773564047       10.191461937909235       -4.842655683739312        0.339102947385444       -9.005744587196695
Mo         -0.045427706767454        3.544979374325950        9.906312310134247        0.972438443967073       -0.935865513605567        5.099513118029415
Mo          4.542447635815797        0.832248339275203        9.841403592732187        4.328089008301355        0.559277665160023        8.911826003425604
Mo          2.999152142190744        3.502297211278251        9.879972611288581        3.740642581436425        4.380979709273798        6.812385894371211
S           1.542524697282724        2.677640638029819        8.712032426934270       -2.439390749530694       -4.281724284287391       -9.975215719680127
S           1.487776255897419        2.637135198985950       11.241866934780081        0.043049027896379        2.882093002633515        9.102092607429872
S           0.030525846936878        5.284818201431484        8.685094706932714       -4.439392628082274        0.392232503948243      -10.384692620232466
S          -0.032186070471380        5.272285308417820       11.343981936873645        4.563011066174604       -1.799860691336087        8.446153247310908
S           4.564256852924036        2.617510006241530        8.723817033048908       -0.815950237050270        0.400520201579619      -11.198641509688189
S           4.609012318209032        2.643442710017728       11.432358269828450       -1.251578096645387       -0.659694715073481        2.833053558806335
S           3.002746961122725        5.275198760417356        8.413745801356406        2.050053566145427        0.190134963463619       -2.759393734331846
S           3.044792167761254        5.306570232386465       11.540250898491150       -1.908316555983757       -1.467195532031304        2.118663227535114
