# total energy = -9676.188802782572 eV 

 CRYSTAL
 PRIMVEC
        8.376928769394899        0.000000000000000        0.000000000000000
       -4.188464384697450        7.254629737515218        0.000000000000000
        0.000000000000000        0.000000000000000       19.999984452360476
 PRIMCOORD
12 1
Mo          2.004872142394082        1.261663482737474        9.810667772141775        0.018665188845548       -0.191368579311337        0.048817043304405
Mo          0.068648093572314        4.779216291522578        9.808080138844909       -0.035716238405566        0.122148794868996        0.118749280750920
Mo          6.263276343080086        1.229359532324056       10.148371090086776       -0.257905159296241       -0.479336375746893        0.398897320539436
Mo          4.178512593319408        4.904289701899782       10.091059494218085        0.006844279672000        0.349713380650060        0.313438184167599
S           2.122415531500477        3.637570742649979        8.194657689380266       -0.545423526698489       -0.183028174041615        2.946346441991545
S           2.071666421629729        3.599126503448595       11.802517141070956        0.113653352009409        0.189747755154602       -3.252898694597330
S           0.078976846744978        7.253931101655850        8.430421323437624       -0.163239155502366       -0.163683185216624        2.042306828860777
S           0.073577078460226        7.252324406717880       11.754866657152007        0.604913738212663        0.362403837301096       -2.665877785495629
S           6.361820857737494        3.618474695827266        8.180702563743331        0.453398047030514        0.203549700198653        2.981549230866496
S           6.314518016362475        3.695852386870167       11.803999019770261       -0.268305790449199       -0.335847415108702       -2.988308406985850
S           4.274457746979674        7.199669545552094        8.240977079317759        0.415321277758357        0.252983037206054        2.862824632716948
S           4.147064765026223        7.181188365301056       11.702312319131455       -0.342206013176630       -0.127282775954289       -2.805844333229749
