# total energy = -9684.261719647888 eV 

 CRYSTAL
 PRIMVEC
        6.784369838529400        0.000000000000000        0.000000000000000
       -3.392184919264700        5.875433889412424        0.000000000000000
        0.000000000000000        0.000000000000000       20.000016987341937
 PRIMCOORD
12 1
Mo          1.774816930364677        0.939218662328236       10.006641572062097       -0.094515337081336        0.054091663795429       -0.055736913443105
Mo          0.025046536569883        3.959582121970429        9.933351381570432       -0.073654939376301       -0.045518059364832       -0.168200872598920
Mo          5.065398448490577        0.952845069148922       10.111993337536687       -0.043573533175526        0.019272740793893        0.189656738062044
Mo          3.423590445684237        3.971329258345842       10.009651118522470       -0.112417422167812       -0.351459931807532       -0.074473321878028
S           1.665796856118397        2.938254266797423        7.869151226365187        0.036372384225361        0.125773023503726        4.543070609591523
S           1.702742498948076        2.901709580225201       12.007154812282117        0.174920196601476        0.077192778906230       -4.459847048416832
S          -0.051226741339784        5.894548851432480        7.833765988598369        0.041403778248703       -0.196498703740166        4.594967578748327
S           0.059854424463442        5.846009398985737       12.012765486138582        0.001146198301194        0.152302449100869       -4.519825769749819
S           5.039374962663945        2.943249598309532        7.886364529519504        0.165027615660083        0.199864793502218        4.544735399631951
S           5.065594516778910        2.932002469991218       12.134316969913609        0.013254814046980       -0.139117054870247       -4.492822746738858
S           3.407705522144303        5.829827998483861        7.808994897443931        0.081854191019429       -0.012919284934585        4.460031910816688
S           3.458889521954105        5.824602676834226       12.179116877705354       -0.189817946302253        0.117015328004565       -4.561555564024972
