# total energy = -9678.498757927711 eV 

 CRYSTAL
 PRIMVEC
        8.536211121343900        0.000000000000000        0.000000000000000
       -4.268105560671950        7.392572236361851        0.000000000000000
        0.000000000000000        0.000000000000000       20.000043889919510
 PRIMCOORD
12 1
Mo          2.068671378494265        1.288457413897873       10.013859996808565       -0.137871611942705        0.496703414026554        0.211065038095443
Mo         -0.062711275002953        4.966134591834269       10.071661243174521       -0.084626098575546       -0.471011397103029        0.371695036944486
Mo          6.379914682067927        1.234114186657173        9.854528201744234       -0.000335272001964        0.583988805789459       -0.011837878461992
Mo          4.250742907251137        4.875100168330696       10.081149241835897       -0.078457248005662       -0.432949026015006        0.360126610214135
S           2.162062649888441        3.676913187041035        8.912103178072279       -0.075235654305807       -0.078296296875885       -1.998430933818450
S           2.178708261575061        3.708741303828079       10.920420983075307       -0.070256453699948        0.166656924461040        1.581601703382546
S           0.037384336605926        7.463465469724612        9.070523305788852        0.276248188771804        0.614385429378584       -7.842105714140130
S          -0.004278349014018        7.344421176668575       10.866302258187098       -0.335150131619954       -0.727252537690134        7.703720652666810
S           6.350550969431616        3.717224590440470        8.941817728985676        0.131678850102743       -0.310342831689342       -2.263871485625095
S           6.341144918397007        3.706352871956327       10.923716814189257        0.147145842297652        0.364583105313863        1.953620699470035
S           4.194579759799367        7.450147273133092        8.969998322760571       -0.280773075246166        0.330299229119142       -9.674842602061462
S           4.242476440401227        7.402117427637738       10.731863761994829        0.507632921335985       -0.536764818715246        9.609258873333676
