# total energy = -9694.816288084801 eV 

 CRYSTAL
 PRIMVEC
        6.656943956970200        0.000000000000000        0.000000000000000
       -3.328471978485100        5.765079890335118        0.000000000000000
        0.000000000000000        0.000000000000000       19.999962657666302
 PRIMCOORD
12 1
Mo          1.734419483686491        0.942865577067014       10.111402594007336       -2.820850583532388        1.170146338064016       -0.688510366622668
Mo         -0.023530299804703        3.880310664602872        9.999556615808695       -0.309055479761555       -1.848845370641473        1.178819444231393
Mo          4.990261540823464        0.995240415037268       10.010375481127564        0.279515805238800       -0.075983588549452       -0.237059416885770
Mo          3.351803901359885        3.880711412629081       10.168683599673876       -1.574070938859899       -1.363890617757370       -3.021428858480504
S           1.582651146883506        2.931318036317862        8.769244864374105        1.917577416596295       -0.778749700126805       -4.210514979330327
S           1.634663847102501        2.914150443547232       11.417481684476975       -0.249412801761825       -0.223224047485696        4.081141895572380
S          -0.004695808267247        5.754211763630968        8.812383192604063       -0.015642084398389        0.935902794618055       -7.369687665869352
S           0.038373953439955        5.734029906636621       11.257616506739128        0.531580701095917        0.362742965959524        7.580387350042408
S           5.014396956833855        2.901382425037763        8.705814173880114       -1.120612213767680        0.388740430075023       -4.418727634304764
S           4.933495116924796        2.892400876251019       11.328606822790652        1.616557409133350       -0.363551064044013        5.647262465686316
S           3.278475666590671        5.754605189018825        8.755481632743068        1.285600748642258       -0.045659470101857       -4.412812551730233
S           3.285719753004646        5.735876542890285       11.338911772036042        0.458811764264685        1.842371072879617        5.871130317691120
