# total energy = -9589.409492042103 eV 

 CRYSTAL
 PRIMVEC
        4.013280256416000        0.000000000000000        0.000000000000000
       -2.006640128208000        3.475601034062666        0.000000000000000
        0.000000000000000        0.000000000000000       19.999977480556058
 PRIMCOORD
12 1
Mo          1.020929535213102        0.609693924602488        9.828618462704860       -2.965543078097876       -5.951916729090796        2.310973859465467
Mo         -0.005837316132957        2.307898615967969        9.923043321905842       -5.556709457456414        0.303413448464697        3.744899558841733
Mo          3.000113609202883        0.574315655158104       10.033421371454102        2.414536141280786        1.879130922524426        5.666713898229721
Mo          1.970118876546588        2.309265137895279       10.006136282974806        6.143465028593371        3.092430675319788        5.445555990167173
S           1.014509490786913        1.750984142673660        8.106908390205577        1.996004582681535        1.486810486808797      -12.585268659965264
S           1.022969084239413        1.753861263289484       12.068389238352013       -2.153849561342483       -1.637083563278145        7.348707968924352
S           0.013757926047020        3.453122651346480        8.052700211126114        1.337403615381334        0.827747234953740      -11.502047244839956
S           0.022693494537930        3.499823187050265       11.977764152897807       -2.105425896997438       -0.647103760159224        6.406687488712175
S           3.045070374635255        1.719087795179742        7.881393744709022       -1.705011110694510       -0.110712780010586       -9.921103744160652
S           2.990375384660690        1.759905664683672       12.072822307723252        2.144010973591592        0.249127409183466        7.537336779483443
S           2.035032079382014        3.492546307289331        8.089735563988372       -1.616556123581196       -1.641617448617591      -11.104169881380114
S           1.992199543189364        3.457526022443819       11.994241076318549        2.067674629530870        2.149773846790998        6.651713472301060
