# total energy = -9686.58435271854 eV 

 CRYSTAL
 PRIMVEC
        6.338432170797099        0.000000000000000        0.000000000000000
       -3.169216085398550        5.489240720714558        0.000000000000000
        0.000000000000000        0.000000000000000       19.999965611692456
 PRIMCOORD
12 1
Mo          1.566421179271607        0.934585977503605       10.160722910324774        0.082107187683488       -0.034019566671700        0.793498839998491
Mo          0.057623320707934        3.636272967551990        9.892945067934759       -0.251685915081891        0.178180613976405       -0.571735436871045
Mo          4.782939082431164        0.957980496802800       10.155606527876508       -0.061512385053628       -0.018617623415822        0.502207377021990
Mo          3.224020071476913        3.666989643694889        9.941403015723720       -0.214971059762498        0.009276030127964       -0.332132426491845
S           1.568457717528084        2.753768619509390        7.729008761727150        0.062792280778918        0.226652100861608        4.365374134556604
S           1.580418972877595        2.777585278391160       12.221162126831523        0.142968569125940       -0.426554689597176       -4.219426683977629
S           0.035324082487852        5.468294737762943        7.799083932434614       -0.027662254155927       -0.201355262670459        4.164487327091344
S           0.044869761337073        5.468822095319552       12.012070560224485       -0.275913688101132        0.350317333052371       -4.270148915575404
S           4.736106308650796        2.778197570938859        7.980768118335126        0.212665293417701        0.080183487439089        4.483128140829301
S           4.748010518110769        2.787893470630528       12.085894913560978        0.019600042372498       -0.263593213360240       -4.375846756630229
S           3.194062739508075        5.444815283472658        7.717497535061766       -0.026049657532983       -0.133557298911294        3.864382632762597
S           3.128645682602929        5.500944001874718       12.081402232838316        0.337661329199084        0.233088089169252       -4.403788489824604
