# total energy = -9699.009041361734 eV 

 CRYSTAL
 PRIMVEC
        6.402145111576700        0.000000000000000        0.000000000000000
       -3.201072555788350        5.544417720253212        0.000000000000000
        0.000000000000000        0.000000000000000       20.000000427745366
 PRIMCOORD
12 1
Mo          1.565003732310413        0.925713690906855        9.869966244511447        0.636110746573348       -0.586972315230251        2.175287686185872
Mo          0.024693713909862        3.652157456917866        9.862545518112620       -1.622125906846955        0.740233529128148        2.699659525018697
Mo          4.789607372456364        0.886275836805031        9.985859155750234       -0.478574300429545        1.001812796482724       -0.359306942160253
Mo          3.131588154248874        3.745478325136764        9.966470899494334        1.386273366324084       -1.286210871694913        0.028645187333465
S           1.578647343757694        2.775155127306953        8.398661747196028        0.386951198586013        0.025528751799870       -0.637206294119644
S           1.590923457009143        2.720325235927877       11.648547458387593       -0.113101335914150        0.268693770089508       -2.231703371166696
S          -0.008146729654481        5.566699105885032        8.332283666464690        0.230335722005888       -0.397635165433882        0.962727382989934
S           0.031953106251879        5.492354195776848       11.826772934861710       -0.195133190241368        0.104957877234539       -3.496860241002065
S           4.743116275085115        2.776122491433313        8.203772767425498        0.238639103373553       -0.134147110239903        2.493763949248018
S           4.796983283839411        2.757182385335224       11.707389574108095       -0.113918175753291        0.099614094037588       -2.943705660755215
S           3.236226734596018        5.527846407846407        8.216468221181756       -0.682693757343192        0.185962832500526        1.785841230867449
S           3.173580464250217        5.565765673127764       11.506374381680299        0.327236272555185       -0.021838445784385       -0.477142709549993
