# total energy = -9638.64938383516 eV 

 CRYSTAL
 PRIMVEC
        6.083633325403599        0.000000000000000        0.000000000000000
       -3.041816662701800        5.268578550632652        0.000000000000000
        0.000000000000000        0.000000000000000       20.000011477230910
 PRIMCOORD
12 1
Mo          1.492638295651082        0.907939688383209       10.096058400100256        8.767524573825598       -4.935836103463133       -0.168960633922389
Mo         -0.052277269528526        3.547646439175808        9.844694229997897       -2.575966010680528        2.176402002793627        1.839162077590878
Mo          4.514166649575992        0.869702836206383        9.891857597353090       -4.589916644332233        3.763846540719607       -0.082489510894317
Mo          3.041036132546150        3.464547658130789       10.052346886293899        2.924758164656479        4.335130491673897       -0.709528373021878
S           1.491555408919160        2.679139645281199        9.279558154051191        1.552945974521412       -2.921247835942662      -30.244598305068500
S           1.517654804248474        2.660858327138361       10.946922657351193       -4.583379868735654        2.561549571706498       30.122468793481826
S          -0.036356401115944        5.270741282279833        8.973890256159617       -3.927274158167863        3.599084777245130      -20.064156010959035
S           0.073792038783816        5.233108534892219       11.027223575429858       -1.191267445746038       -0.863452417610775       18.737839511581310
S           4.526009658570556        2.656877805853549        8.974758998998485       -1.781316087282656       -0.694199449128391      -23.726822140895681
S           4.550129439615784        2.644572440726256       10.829774388947223        4.530237456651308       -2.793017608050308       24.318957490689925
S           3.026713434608153        5.283665961279652        9.059337319668241        3.012405825016598       -2.349912205791751      -26.111851774899311
S           2.996411465377649        5.294014221566164       10.778103657661241       -2.138752036836855       -1.878348021262170       26.089978876317176
