# total energy = -9672.39983342633 eV 

 CRYSTAL
 PRIMVEC
        8.185842864781000        0.000000000000000        0.000000000000000
       -4.092921432390500        7.089144566971965        0.000000000000000
        0.000000000000000        0.000000000000000       20.000036021847581
 PRIMCOORD
12 1
Mo          1.940779847642354        1.246355969984393       10.100951090615114        0.043697203292815        0.091120965171879       -0.016580023250510
Mo         -0.036423726411130        4.703324181715776        9.964666629927949        0.182584915658650       -0.093908556464284       -0.173867586497149
Mo          6.067512085401545        1.241063003988026        9.978591567225228        0.158588284916836       -0.195113392738185        0.182977009065855
Mo          4.026404091855576        4.728025781144539        9.999468740867565       -0.286952210233287        0.080658884625923        0.078079809893022
S           2.014431150233935        3.550514386821527        8.099569811076213       -0.102708675184552        0.139203958195909        3.677046059229482
S           2.122557948634827        3.515128625285652       11.978671297748630       -0.055593702933064       -0.190957973953103       -3.662279950069354
S          -0.083077300650376        7.126262452858028        7.970335816848483        0.179461281032988       -0.038013520106142        3.536208164244859
S           0.091683895838407        7.063487679680883       11.951628547260537       -0.104037936112585        0.154795391839401       -3.528062648681801
S           6.185646076704633        3.569429413929177        7.816644161309361        0.041963764767322       -0.062223552505648        3.700962985737700
S           6.215033252589197        3.497999749091098       11.948422152610402       -0.046006054962783       -0.052599651964602       -3.773434445800319
S           4.079824902391137        7.096586316720338        8.172827374625998       -0.170557289698615        0.024327788976883        3.537736428646451
S           4.104896501917389        7.059693541513056       12.095428430281858        0.159560162345843        0.142709916032400       -3.558785802518238
