# total energy = -9691.70321797114 eV 

 CRYSTAL
 PRIMVEC
        7.039168683922899        0.000000000000000        0.000000000000000
       -3.519584341961449        6.096096059494329        0.000000000000000
        0.000000000000000        0.000000000000000       19.999981709846463
 PRIMCOORD
12 1
Mo          1.689856622272214        1.048161077627724        9.899058326915068       -0.528554768434018       -1.143034043119900        2.249188680244596
Mo          0.075880830578952        4.033027641018601        9.921899021460661       -3.268485243142633        1.597647708267965        1.803675695910584
Mo          5.222923787930849        0.999471147841029        9.859590412021179        1.235035354407365       -0.428740899591579        3.223183156539803
Mo          3.449476333620182        4.089159379937939        9.941241953087212        2.518777708854687        0.864392413346343        1.937261791190145
S           1.771186473329390        3.087384312186662        8.971273369034240       -0.074087913342027       -0.696785980063790       -7.174247742883854
S           1.750519474073393        3.057660014585061       11.157563843155774        0.261675683766184       -0.496549147767982        5.964316393844423
S          -0.082911552260454        6.130143814501595        8.947065667930231       -0.087092558939689       -1.125396524666875       -4.984932882916416
S          -0.013691183090230        6.149157313033739       11.404771704249596       -0.106819356754647       -0.249527730124461        1.578875561483139
S           5.265430511945586        2.996974637444093        8.898154708246860        0.287752852115279        1.221391275167921       -4.402845408763864
S           5.248166246831397        3.022008033034728       11.395390604144531        0.110040950454503        0.044966300380004        1.390600791987474
S           3.472847077567675        6.068227286757810        8.680829526050029        0.012166722703182        0.233133854825962       -3.648964715071100
S           3.498153592903246        6.105204743771324       11.285518331907783       -0.360409174577753        0.178503030456822        2.063888935545501
