# total energy = -9691.237955343167 eV 

 CRYSTAL
 PRIMVEC
        5.956207443844399        0.000000000000000        0.000000000000000
       -2.978103721922200        5.158224551555346        0.000000000000000
        0.000000000000000        0.000000000000000       19.999943953578928
 PRIMCOORD
12 1
Mo          1.480449906170700        0.833271634531598        9.832642454207310       -0.280533705434948        0.645183145239997       -0.285862319116473
Mo         -0.062199483094578        3.473740590050546        9.921040911364383        0.536168065405001       -0.587891742131343       -0.099976619745233
Mo          4.488825456805494        0.898542733804967        9.982279062577524       -0.275839640297018       -0.487023977632423        0.096971770138672
Mo          2.912681930600502        3.464041501848989       10.091943562792098        0.255508890079748       -0.145932023953118        0.355531532592122
S           1.475225121000959        2.571207197258203        7.894629544751551       -0.148560463888762       -0.065979678791457        3.992578664967634
S           1.418440426093580        2.597288834034053       12.140251139209992        0.252806916560851        0.206781578315746       -3.819496807947481
S          -0.000276368025394        5.119748047088856        7.986257457584675       -0.004793309764278        0.244771187151809        3.770058585841891
S          -0.045135544388708        5.184162643731800       11.814627065117250        0.115414815571876       -0.051266791490536       -3.602109167244444
S           4.430787575851930        2.553576227603679        8.006177993380614        0.013185908451484        0.279674185264268        3.774150241240095
S           4.442035277988886        2.542062878614728       11.984370638576396       -0.230810090750998        0.461436090433434       -4.017986831975386
S           2.991717825276595        5.191039085225718        7.877671030917437       -0.105654646502425       -0.074513173994826        3.813824951840632
S           2.969293299871265        5.208001768405042       12.046763102792152       -0.126892739430531       -0.425239312632414       -3.977684257702460
