# total energy = -9700.046098961422 eV 

 CRYSTAL
 PRIMVEC
        6.211059206962799        0.000000000000000        0.000000000000000
       -3.105529603481400        5.378932549709958        0.000000000000000
        0.000000000000000        0.000000000000000       20.000070264801529
 PRIMCOORD
12 1
Mo          1.502653354953003        0.893370185457177       10.082245954275967        1.058115609984359       -1.147904228903033        0.274479011896408
Mo          0.055429976786619        3.583489863740729        9.965128358551713       -1.178913032428260        0.798040695761296        2.002791269617001
Mo          4.683195162688734        0.864067029224647       10.002016460287786       -0.578159083878004       -0.005194144926136        1.030285976937880
Mo          3.105581776378738        3.563245537361554       10.015541041710948       -0.652100701384819        1.898219829360187        0.696103351869607
S           1.582071684608754        2.652168243211247        8.481294512995808       -0.211384883471550       -0.176843639735444       -1.097956928144154
S           1.579383538183980        2.675992624117315       11.602950510602165       -0.376098824405869        0.229149928698327        0.345920744683055
S          -0.073538941010440        5.401125285362357        8.441839380489498        0.630346587821787        0.017352125874665        0.175828567754037
S           0.051528189392805        5.378943108510611       11.793483447258639       -0.324013136192744       -0.076436617128794       -2.344474063066639
S           4.598234704902611        2.716716054913687        8.493362601034937        1.148267011721110       -0.765421352496572       -1.399520724168566
S           4.642101552763627        2.732800213836038       11.511814396646558        0.939614955020172       -0.741571531810833        0.917244290643712
S           3.142050631618341        5.370201042676810        8.342381068302480       -0.432821499241252        0.037752295908292        1.184731698591184
S           3.086821272044107        5.367265074989679       11.770114336992441       -0.022852489324068       -0.067143617712386       -1.785432939503094
