# total energy = -9685.306025138994 eV 

 CRYSTAL
 PRIMVEC
        6.656943956970200        0.000000000000000        0.000000000000000
       -3.328471978485100        5.765079890335118        0.000000000000000
        0.000000000000000        0.000000000000000       19.999962657666302
 PRIMCOORD
12 1
Mo          1.636483189885941        0.970563789483176        9.961175339730389        0.173612018728781       -0.170781232883976        0.048760221899164
Mo         -0.042711618122317        3.838140921718653       10.137548407092730       -0.011266836194842        0.209578939804528        0.260040718535746
Mo          5.015308292461564        0.910809063442224        9.926841485577919       -0.330108967400236        0.314548387008459       -0.222571501211934
Mo          3.354254322430446        3.819319744069111       10.191884380752709        0.045464580395193        0.230962814346985        0.448453042111972
S           1.657238209754983        2.847391946769152        7.708858930079530       -0.105621222146401       -0.176466715843665        4.055900079013456
S           1.744047421731457        2.833092165455184       12.190221736085263       -0.181585013192669        0.416973726498100       -4.574671538439237
S          -0.042688318818467        5.784233249488111        8.047021697677680        0.129417563862501        0.035833737872512        4.359936248941924
S          -0.073444065594065        5.773942945519428       11.946908437374814        0.187633278970435       -0.274018527114569       -4.268899615991398
S           4.927722215125312        2.932663404691566        7.865948162187321        0.157793813685188       -0.404057526888686        4.464066744809652
S           5.017129632328191        2.925175674128766       12.242517356422429       -0.075268564440969        0.157600466641111       -4.560311406649585
S           3.313607688323581        5.791474673124505        8.029432054660179       -0.020641339617862        0.091503545493138        4.409844726025729
S           3.316464182975517        5.816596648229319       12.228207589692527        0.030570687350881       -0.431677872044368       -4.420547719045488
