# total energy = -9603.010276682262 eV 

 CRYSTAL
 PRIMVEC
        4.554734417592800        0.000000000000000        0.000000000000000
       -2.277367208796400        3.944513873995805        0.000000000000000
        0.000000000000000        0.000000000000000       19.999888929728577
 PRIMCOORD
12 1
Mo          1.121119637537079        0.685505293311945       10.073784452821977        2.330998391159470        1.076808823866881        4.114610988811408
Mo         -0.022044914581149        2.592268793172397        9.863460937094237       -0.401557899278950       -0.119461219534232       28.173574040843160
Mo          3.400400290262309        0.654539020427057       10.005241165518509       -0.045953861545299        3.987739075325784       14.725442260374866
Mo          2.298981245501645        2.640307577074748        9.900558793452090       -3.341061090040220       -4.549303480658714       18.203291499001750
S           1.094003937128823        1.987829573971652        8.586051964645646        4.291340471515508       -4.703859245576465      -31.272043725965197
S           1.151054718549824        1.998478087566542       11.622271632447699       -0.341379660251543        2.520418073404174       13.669818564687313
S           0.026547725026381        3.932610531068867        8.701365086842728       -4.171310009487144        5.712808399180752      -34.952671076387439
S          -0.040079385507608        3.945127396721854       11.589543132816644        1.758947222679213       -2.539453758380728       15.261016657794793
S           3.394940530115941        1.972572580093042        8.576074363430468       -1.139683122873274       -3.902428034562176      -33.084563763590175
S           3.406934056784346        1.977095886843153       11.630244239572251        0.290225483129765        0.738753344377145       14.081518699136113
S           2.235045527535011        3.952423625785396        8.628133611403229        2.707678285139295        3.858798965533564      -30.262520958989452
S           2.282486730281775        3.924984083760050       11.485149530912301       -1.938243953036390       -2.080820685865556       21.342526814282863
