# total energy = -9669.784700976948 eV 

 CRYSTAL
 PRIMVEC
        4.936959144545499        0.000000000000000        0.000000000000000
       -2.468479572272750        4.275530043155016        0.000000000000000
        0.000000000000000        0.000000000000000       19.999922649061634
 PRIMCOORD
12 1
Mo          1.209551040846332        0.735307732813120       10.088922366140039        2.982597727203927       -0.466868576729064        2.185769307124581
Mo          0.015861462339596        2.876527144704066        9.898450039080245        1.415197004254273        0.734811841470618        1.967262207605170
Mo          3.742497425628556        0.724224753229530        9.972067505364135       -3.916732116277880       -0.735410137443448        1.760744167481151
Mo          2.493612150189887        2.823490873701958        9.978778313929316       -1.442701906826456       -0.085982870319691        1.988365317557026
S           1.186259948690109        2.176984225021777        8.098593705063410        1.233477779416645       -0.442478309917460       -2.689878787114769
S           1.220312624389612        2.171235629793869       11.802857837988862       -0.310832884170741        0.278999270383013        2.652185626605597
S          -0.015528711293253        4.274047968019823        8.235345498583662       -0.497912604383332        1.345361183219365       -3.935346140147669
S           0.019456555988654        4.234556738126689       11.972410788065476       -0.133629289831961        0.287304708634125        1.681256677978656
S           3.758799264723846        2.114818529169575        8.339407710824222       -1.487808846612192        0.387952129493718       -6.830172279763757
S           3.680799753503257        2.149762325994668       11.876023572511027        0.608096251127014       -0.082791101429826        3.005853622794163
S           2.427488987887417        4.281537335042098        8.337911812203425        1.835886233590091       -0.542305548502308       -5.922405850936308
S           2.446749546598033        4.298788551380884       11.718489155775895       -0.285637090378957       -0.678592588859043        4.136366645037025
