# total energy = -9696.42394716437 eV 

 CRYSTAL
 PRIMVEC
        6.911795720088600        0.000000000000000        0.000000000000000
       -3.455897860044300        5.985787888489730        0.000000000000000
        0.000000000000000        0.000000000000000       20.000075772584175
 PRIMCOORD
12 1
Mo          1.716861718507556        0.979317129628770        9.997488124850946       -0.380286381994819       -0.113105449681045        0.498126520261886
Mo          0.018503568322249        3.993308639129633       10.087288248385054       -0.365264190845461        0.047715839328628       -1.129572769396863
Mo          5.219466729309927        0.961786742143909        9.848789825267676       -0.430071703182198        0.512432915971468        1.280350039421313
Mo          3.429706301342596        3.938719276532373       10.141099342784232        0.901212169721565        0.664382352450637       -1.596515136819612
S           1.768813539858030        2.946519250860930        8.501268205217919       -0.259362204108458        0.422354276486677        1.248097078520699
S           1.777827212656597        2.951000859205836       11.561113258705422       -0.600570371702555       -0.062927520865600       -0.399022276208880
S          -0.082800548008373        6.026328335106337        8.441640143540715        0.595542834335677       -0.523689467749072        1.235823397878240
S          -0.083948597277480        6.040041337814993       11.634474367298871        0.633352208759641       -0.352655238201038       -1.954668938697035
S           5.131323363209925        2.993124107042344        8.265911193255322        0.284417358494510       -0.147147899181100        2.815847471656451
S           5.226672967527692        2.948205729016632       11.581015083301844       -0.061142146033054       -0.237432741231516       -1.598693119280224
S           3.498316932737628        6.000516233989666        8.225616115386778       -0.287009288748959       -0.171794247981935        3.054245662556200
S           3.445707108434601        5.931063745875928       11.864505149479566       -0.030818027585459       -0.038132562235674       -3.454018444113035
