# total energy = -9697.647340105294 eV 

 CRYSTAL
 PRIMVEC
        5.956207443844399        0.000000000000000        0.000000000000000
       -2.978103721922200        5.158224551555346        0.000000000000000
        0.000000000000000        0.000000000000000       19.999943953578928
 PRIMCOORD
12 1
Mo          1.465261577188897        0.869036277748906        9.984951017236833        0.446540911836966       -0.109198142461835       -0.569094655634715
Mo          0.012756409482482        3.391992834125270       10.165013124471692       -0.963077824507325        2.176239509001265       -7.247993699352713
Mo          4.470993762960113        0.837581546237964        9.807690709983557       -1.304159236658960        1.258577156796821        4.163889802449806
Mo          2.958307670861839        3.467556259861602       10.050014244870411        1.277935258253791       -0.316367957528322       -2.860205191646387
S           1.510769980163590        2.555268981759220        8.379856153509545       -0.414065807524008        0.863152883958713       -0.042639965200731
S           1.501303184052343        2.591387423698692       11.524534746530765        0.821719280900019       -1.033696032583626        4.139301560606367
S          -0.039403885965497        5.188290295490384        8.323189987130299       -0.215409690157706       -1.350672570502016       -0.216917385724821
S          -0.038720113350944        5.205322070676057       11.519929406935184        1.061492755494942        0.202912837661179        1.977806049268169
S           4.467378940662444        2.588743463214370        8.330495871180918        0.142912261941561        0.902069890119228        0.181546189517595
S           4.480081148657186        2.564079403810154       11.551261440572782       -1.218770291434774       -1.281324487954629        2.159609606327149
S           3.005433184157535        5.193342350644253        8.418867525404492        0.448601909051495       -1.359744712058234       -2.522974265308721
S           2.924815916405101        5.207011846727876       11.584940815564002       -0.083719012975139        0.048051882661885        0.837672468919863
