# total energy = -9534.884347649437 eV 

 CRYSTAL
 PRIMVEC
        4.936959144545499        0.000000000000000        0.000000000000000
       -2.468479572272750        4.275530043155016        0.000000000000000
        0.000000000000000        0.000000000000000       19.999922649061634
 PRIMCOORD
12 1
Mo          1.242915504441085        0.732559821353266        9.854091954862417       14.516386540297328       -7.750147340294633       17.042532262771868
Mo         -0.048807271798891        2.879929203250573       10.140339314542738       -7.944458548488241       -1.526333502255071      -25.859276000615885
Mo          3.648351095829817        0.750706108384957        9.992094280133983       -3.139109588280378        5.775938008845083        3.141732371786542
Mo          2.450149630360881        2.884880479576637        9.953598341204390       11.378555047969224      -23.418426149389525        8.547797999532172
S           1.194162045496869        2.132210942539894        9.034717681735977       -8.382889940222483       15.347914584138250      -54.420985233579607
S           1.212138501133988        2.173999833218900       10.976615267300529        8.281574546463272       -9.843368719355540       51.336022073616448
S           0.025150844665973        4.295733067366325        8.830107878469860        2.861867153472075       -9.582180774076877      -41.857667376657048
S           0.034563157275049        4.247644123122965       11.059957555707346       -6.856678308311684       14.563694602482464       50.396160549692993
S           3.717497651912407        2.094730042410419        8.852983772362027        3.702588437882193        6.565354449420883      -40.259104612365320
S           3.684865833054704        2.174221502684490       11.137609011308244       -9.094363096544098       -3.626041520378520       45.517506320294920
S           2.453872097555868        4.240276698991560        9.141898077372231       -8.359514231171422        9.742588372403144      -64.274736072137060
S           2.480807159256679        4.308514854591553       10.964147470676895        3.036042501155076        3.751007731349911       50.690017460549548
