# total energy = -9331.95221603943 eV 

 CRYSTAL
 PRIMVEC
        3.822194351802100        0.000000000000000        0.000000000000000
       -1.911097175901050        3.310115863519414        0.000000000000000
        0.000000000000000        0.000000000000000       20.000094431321056
 PRIMCOORD
12 1
Mo          0.928047899589309        0.566712934347346       10.114909507004274        5.746390106788537      -15.170792750916515       -9.919076428412579
Mo          0.039825736268037        2.175925173734927        9.887256553655460      -22.417357687604415       11.583412411819710       45.161620489528950
Mo          2.896531883707750        0.519053992974725        9.865388250891058       11.529216104078882        5.011034219646021       27.257999682448496
Mo          1.898312318013707        2.220126558096907        9.965341308726730        2.773575945703278        9.187081488823495       -0.034826122093603
S           0.912543932640094        1.664020213075812        8.858824070488161       15.226098747277339      -19.377706898661327     -103.814717207307737
S           0.990716215962021        1.639443885613160       11.292749656286341       -4.540571239092218       10.412638467193734       75.434027087478157
S           0.029540211267338        3.321732276593410        8.870615157844036      -23.168182880935721        6.529749796942351      -97.624955588964596
S          -0.003744986025896        3.316461852801710       11.312536009787314       10.229296875536788       -5.979516762522433       61.592356424961942
S           2.831363470009525        1.682249786817297        8.759607167284647       -2.847779815849666        1.009255629237985      -86.399681295286030
S           2.815583158408675        1.683654061022149       11.095580996209760       10.146902752612355       -7.194197712552882       79.952457261808746
S           1.963431043185359        3.277342840269322        8.601784558084951        7.987275662775899        3.764532511349393      -65.715619436885390
S           1.893500939763659        3.289015057380855       11.285966025750762      -10.664864571291060        0.224509856750898       74.110415132723631
