# total energy = -9697.316594156902 eV 

 CRYSTAL
 PRIMVEC
        5.956207443844399        0.000000000000000        0.000000000000000
       -2.978103721922200        5.158224551555346        0.000000000000000
        0.000000000000000        0.000000000000000       19.999943953578928
 PRIMCOORD
12 1
Mo          1.449244739751655        0.892946876911475        9.919999170682454        0.602270385872023        1.589280306402992        1.844585050800563
Mo         -0.026824971464842        3.421135365906512       10.110879537497569        0.805973580997956        0.018668531281151       -5.015185010443345
Mo          4.456764978997513        0.893605633454765       10.119277789993388        0.730984238485003       -1.085028644344486       -4.480012990847860
Mo          2.936708080187481        3.418755265411952        9.991663067405302       -0.342845961039274        0.801558480677611        1.596766847931516
S           1.532111071434884        2.595231559982949        8.250330083952727       -1.006714606848865        0.423681223420832        0.875526323448383
S           1.424437731368787        2.587026288608309       11.609987263486111        1.198490963303696       -0.576800512360842        1.457924387001528
S          -0.061021345262186        5.201115201358469        8.442050871638170        1.533301709154790       -1.034795436786385       -1.223844622900085
S          -0.038965509097630        5.181746805992576       11.410403686354050       -1.304378551856564        0.461436604654296        5.582448525588805
S           4.422682964383091        2.572704587809585        8.561890361029063        1.015910418522371       -0.127693895533384       -2.872138715188694
S           4.500054099078629        2.557514471965549       11.631049604249034       -1.506708777281202        0.991877792320224        2.538147123170619
S           3.019691153536610        5.174247940820776        8.479489804767940       -2.203294211208847       -0.453106226691381       -2.428072491249661
S           2.994064571009469        5.203090279746848       11.558234372627291        0.477011326119775       -1.009078223040627        2.123856086909095
