# total energy = -9414.383026900292 eV 

 CRYSTAL
 PRIMVEC
        4.363648512978900        0.000000000000000        0.000000000000000
       -2.181824256489450        3.779028703452552        0.000000000000000
        0.000000000000000        0.000000000000000       19.999988775209427
 PRIMCOORD
12 1
Mo          1.088910522671821        0.619700052651888        9.997576053598818       -6.842435933099408       14.983452577837367       -7.389078677461484
Mo         -0.015866225993191        2.518349702540085        9.961363007319310       14.914994097381081       -8.374714342739003       -3.055428627649020
Mo          3.233752421648924        0.653850402279312        9.853207360736020       17.224143758338926       -4.986273970924273        2.179186765871292
Mo          2.137745297400445        2.555119986734702       10.062870635393077      -17.474128630809624       -3.031962929947126      -22.694148122275102
S           1.067308280708319        1.890294135715545        8.870173787394011        5.569155659198043       -1.006519717142202      -64.591636248257458
S           1.082090140046036        1.918656541955354       11.180536729035726       -6.408808649767546       -4.056230208806801       63.166969352610288
S           0.043971176970734        3.760751561655939        8.899762815230819      -14.058171529342889       -4.837076644498038      -80.684432146784218
S           0.003812519705790        3.795722713568655       10.939487476084217        9.085357289479067       -0.203590580757174       82.668172047688387
S           3.216385100567268        1.911837468424122        8.886665760583963       -4.647306777846373       12.922591888947643      -73.294424272225271
S           3.247259659255999        1.898479467596191       10.869737172793359        5.797873642372368      -11.043533471564746       88.581989896009958
S           2.221245893520553        3.770734716723933        8.825531044917129        3.391034358952625       -4.665079793496511      -64.070075654876703
S           2.124010713705843        3.802846806130944       10.982262140632693       -6.551707027745836       14.298937193090863       79.182905687349333
