# total energy = -9663.40428247389 eV 

 CRYSTAL
 PRIMVEC
        5.446609753057400        0.000000000000000        0.000000000000000
       -2.723304876528700        4.716900211391535        0.000000000000000
        0.000000000000000        0.000000000000000       20.000032712373070
 PRIMCOORD
12 1
Mo          1.333832244967683        0.791074859770637        9.989661806384998       -1.306730598078933        5.064980101827099       -2.255192723028237
Mo          0.001099670509142        3.115052827678328       10.063718814536344        0.604273790350018       -0.356229073191300       -3.924377037831872
Mo          4.068334806487695        0.784484461969438       10.062436137939498        1.149857239736561        3.261796515281361       -4.074525929963069
Mo          2.691320750075821        3.120963488582347        9.921584631081533       -2.533187720067944        0.898970423874076        5.608154940696464
S           1.393029812390739        2.337002990471153        8.544519921198956       -3.056944550749926        0.263114473737803      -11.801828751356993
S           1.321897089015809        2.345377152966479       11.332149803572239        3.376835949624044       -0.194617426716874       15.772280235526283
S          -0.027260826475028        4.736121297210075        8.861014244034491        2.319400396729558       -2.717500932043468      -21.401303801461570
S          -0.052586472504794        4.746188810677626       11.294871027778413       -0.209112541482777       -0.774265179990103       18.427079389662527
S           4.048692153074268        2.371983841610164        8.792853735601806        4.291044280299048       -2.377810487323294      -19.591109070574142
S           4.089815690692777        2.397312755605782       11.413849494529074       -2.761053896384517       -0.147716370343940       12.989421060602972
S           2.769888095763674        4.718201406461541        8.571909287664155       -2.728510657807356        0.764134000568785      -12.373090076593360
S           2.717998789307272        4.716942694947609       11.142646999756064        0.854128307832222       -3.684856045680146       22.624491764320997
