# total energy = -9682.894502641451 eV 

 CRYSTAL
 PRIMVEC
        6.402145111576700        0.000000000000000        0.000000000000000
       -3.201072555788350        5.544417720253212        0.000000000000000
        0.000000000000000        0.000000000000000       20.000000427745366
 PRIMCOORD
12 1
Mo          1.626778030492017        0.952801166873936       10.039555227230048        0.049720015137916        0.125518484177081        0.429781939726512
Mo          0.047539128526013        3.664710142838134        9.893220756200229        0.027627287137318        0.013953125977451       -0.757842508323337
Mo          4.720606973087324        0.952873511113697        9.845097111825529       -0.133028422754821        0.186567042013268       -0.855359609686062
Mo          3.235806753876698        3.650709931908138        9.816605005220968       -0.236941917418824       -0.223381399069440       -1.289901691931259
S           1.567718882052233        2.724715186830885        7.884808934963591        0.142820987738572        0.361502665240601        4.523353324862510
S           1.630843392637868        2.786803830337467       12.270895503182388       -0.116703967272680       -0.191978445253561       -4.089207192680981
S          -0.031155398970977        5.546838371319899        7.786026396750008        0.337402418995113       -0.047456929124657        4.442530146671207
S           0.030680359803698        5.578890070606496       12.263828175193717       -0.170070322542387        0.108385930610451       -4.117530477754893
S           4.711946151180382        2.815614123554074        7.749573862913713        0.151442928930189       -0.194200136487435        4.545052673903749
S           4.824008658998910        2.720341881505167       12.361814286555422        0.108500344752225       -0.099851921186220       -3.257920575534727
S           3.185623539419604        5.596803272628688        7.772758591220776       -0.320665301271290       -0.248884182715783        4.373449973192875
S           3.187134445665937        5.579893286745480       12.218528517027734        0.159895948568669        0.209826022928675       -3.946406516666455
