# total energy = -9692.041953865722 eV 

 CRYSTAL
 PRIMVEC
        6.338432170797099        0.000000000000000        0.000000000000000
       -3.169216085398550        5.489240720714558        0.000000000000000
        0.000000000000000        0.000000000000000       19.999965611692456
 PRIMCOORD
12 1
Mo          1.502091797326970        0.957737734850659       10.106324583905343        0.613594043472107       -0.393302083341012       -0.031145329164063
Mo         -0.016598452325666        3.657677219149555        9.845954467193339       -0.082702398331147        0.056495646324851        0.545628700822391
Mo          4.722320852522529        0.917189516567636        9.871706249416853       -0.191596636263594        0.161316226589260        0.499661212424251
Mo          3.175632480285047        3.692196954594933       10.053752993637534       -0.303068920487218       -0.206533209639445        0.131068212829227
S           1.624793702662128        2.724074966318857        8.128658953117032       -0.307243622554621        0.170319205439551        3.783983943892799
S           1.602290366926147        2.745557180632123       12.064114792935685       -0.078015532285283        0.017560642434169       -4.294751298492546
S          -0.027422592943737        5.449295921174195        8.027586313721502       -0.003841744059317        0.180035408625309        3.880184125628177
S          -0.033385789930022        5.526645710484083       11.940541987020259       -0.055984767898545       -0.056221052384592       -4.161107610476451
S           4.728985080106905        2.753596214154345        7.828847308379027        0.190574879410982       -0.078046899757860        4.341092882567724
S           4.742755957841179        2.739326501808229       11.877330070667332        0.022299444787085        0.044652625654240       -4.092849676156310
S           3.105680909004914        5.515086311734199        8.122375031462903        0.228392224258306       -0.055090537819686        3.719031678383435
S           3.180972609388944        5.451409154459939       12.105184030343146       -0.032406970048755        0.158813770764783       -4.320796585148202
