# total energy = -9667.127432633053 eV 

 CRYSTAL
 PRIMVEC
        4.745873239931600        0.000000000000000        0.000000000000000
       -2.372936619965800        4.110044872611764        0.000000000000000
        0.000000000000000        0.000000000000000       20.000016294860590
 PRIMCOORD
12 1
Mo          1.208814254133118        0.686566023540621       10.111645798240531        0.198038538111150       -0.409829913174038        1.997015798006478
Mo          0.029253088063614        2.712204860268790       10.163582736629046       -0.283827804276332        0.206215678257216        2.784300021778376
Mo          3.559720055931832        0.689384597657816       10.019382700344991       -0.144450810760391       -0.267623419365446       -0.459538101232130
Mo          2.403152645709797        2.761514008644356        9.860674529566468       -0.182890619961055        0.299963540702154       -4.387557108318467
S           1.149295308656488        2.053596301397282        7.961433958599368       -0.059239014623132       -0.411407542778373       -0.499337253281249
S           1.167323931920340        2.019084785783824       12.155595163103005        0.497622840927646        0.120756541885379        1.013022039941032
S           0.021828643967065        4.090021084237844        7.746116537227616       -0.057237152807723        0.527436080948936       -1.428751351953314
S           0.049781362762939        4.078975064271904       12.193753407714025        0.070889202470527        0.184406028841099        1.055039540788423
S           3.559226010527555        2.076223675830629        7.937268921236285        0.201540639291177       -0.167703878135885       -0.874742907965265
S           3.534089018324933        2.042951782307440       12.182761016115697       -0.246080650576659        0.089268998737716        0.975073054553060
S           2.345318010646019        4.105225912923938        7.745572185566995        0.047837452562469        0.114062671815488       -1.601966649287133
S           2.404191042774694        4.113506037965646       12.296151792500762       -0.042202620357678       -0.285544787734244        1.427442659859757
