# total energy = -9565.643176485935 eV 

 CRYSTAL
 PRIMVEC
        4.204419078754800        0.000000000000000        0.000000000000000
       -2.102209539377400        3.641132032678625        0.000000000000000
        0.000000000000000        0.000000000000000       20.000118839462914
 PRIMCOORD
12 1
Mo          1.088716661883425        0.585002870617943       10.028793681041391        5.638191609682252        0.036282138464097        9.640966245899804
Mo         -0.011174084585607        2.414879573007158       10.085494897179384        7.823661640265203        7.370093900350258       -0.999223180222154
Mo          3.202767527154229        0.572691070229625        9.883805970878161      -15.306022038960302        3.734708986910865       11.050478538525681
Mo          2.116564266996085        2.451115779279314        9.951638386527161        0.081643617576477       -5.142090348284992       12.199317363845232
S           1.071688344172560        1.831155686672972        8.642594188124484       -4.822557361351625       -1.987583187626063      -36.171658111915505
S           1.088526622141065        1.784717037064310       11.673422837936853       -0.263590128035068        0.981909106691269       19.193547695833946
S          -0.026059830333938        3.657434667656497        8.288682587309314       -0.627407044264688       -1.120077166960864      -18.884536439066515
S           0.009433034645094        3.673322746913204       11.703909921560721        1.284543510550175       -0.401056791049020       19.006106478355431
S           3.149941944523031        1.843326639022152        8.387602477626624        2.118387862263562        0.883477720636071      -23.244633124917353
S           3.151490011627828        1.829862407364347       11.379444810647422       -3.448405980515737       -5.114442749423630       35.495272558995772
S           2.085117734938446        3.652494054797053        8.614110089749737        7.691815668382339        0.358528154664893      -44.767324674372297
S           2.065220321648239        3.636387345748251       11.705827136660631       -0.170261612703017        0.400249721406255       17.481686391927521
