# total energy = -38803.61280603977 eV 

 CRYSTAL
 PRIMVEC
       12.740577282373799        0.000000000000000        0.000000000000000
       -6.370288641186900       11.033658440967770        0.000000000000000
        0.000000000000000        0.000000000000000       19.999979849788435
 PRIMCOORD
48 1
Mo          1.590438113601927        0.918231241548875        9.999991198951946       -0.012368040170619       -0.007140727998890        0.000000000000000
S           1.571694176304099        2.789642402189905        8.438994011334129        0.190001266039523       -0.314159636036857       -0.072376329203166
S           1.609182050899755        2.724710050070287       11.560989660627493       -0.177072982239855        0.321568273104801        0.072375814982304
Mo         -0.002132772637069        3.676645214761953        9.999991198951946       -0.012105273310184       -0.006898787083362        0.000009513085945
S          -0.020877983992626        5.548057649460711        8.438994011334129        0.189970155677378       -0.314125440349540       -0.072378128976182
S           0.016609890603031        5.483124023283365       11.560989660627493       -0.177050870742793        0.321569558656956        0.072386870730835
Mo         -1.594706206991522        6.435059187975031        9.999991198951946       -0.011782599719336       -0.006802627782185        0.000000000000000
S          -1.613450144289351        8.306471622673790        8.438994011334129        0.189961928143587       -0.314115413042733       -0.072386870730835
S          -1.575962269693694        8.241539270554171       11.560989660627493       -0.177055498730550        0.321581642847210        0.072378128976182
Mo         -3.187277093230519        9.193474435245838        9.999991198951946       -0.012027111739174       -0.007034027170044       -0.000009513085945
S          -3.206022304586075       11.064890692117780        8.438994011334129        0.189949843953332       -0.314133924993761       -0.072375814982304
S          -3.168534429990419       10.999950695651792       11.560989660627493       -0.177069382693822        0.321625865841335        0.072376329203166
Mo          4.775582434195377        0.918231241548875        9.999991198951946       -0.083437219942814       -0.048573816836722        0.000009255975514
S           4.730307518764734        2.835591294158786        8.438994011334129        0.485006946301588       -0.750440813237028       -0.146199933022172
S           4.820857349626021        2.678761158101405       11.560989660627493       -0.407397391386781        0.795248733591565        0.146199933022172
Mo          3.183011547956380        3.676646488819681        9.999991198951946       -0.083784833245464       -0.047971921317858       -0.000009255975514
S           3.137736632525737        5.594006541429592        8.438994011334129        0.485024944031754       -0.750467552721847       -0.146191448377951
S           3.228283915271568        5.437175131314484       11.560989660627493       -0.407408704245743        0.795245134045531        0.146190419936227
Mo          1.590438113601927        6.435060462032760        9.999991198951946       -0.083499183556674       -0.047854678961343        0.000012598411117
S           1.545163198171284        8.352420514642670        8.438994011334129        0.484982520810647       -0.750453154537714       -0.146202504126482
S           1.635713029032571        8.195590378585290       11.560989660627493       -0.407420274215136        0.795233821186569        0.146202504126482
Mo         -0.002134046694798        9.193474435245838        9.999991198951946       -0.083192965033407       -0.048385097780402       -0.000012598411117
S          -0.047407688067713       11.110840858144391        8.438994011334129        0.484998204546935       -0.750448783660388       -0.146190419936227
S           0.043139594678118       10.954000529625183       11.560989660627493       -0.407411275350052        0.795277787070263        0.146191448377951
Mo          7.960726754788827        0.918231241548875        9.999991198951946       -0.017886915571050       -0.011004069334407        0.000004113766895
S           7.984361799705359        2.716240114292964        8.438994011334129       -0.218704046109522        0.411554352834448       -0.080402802636693
S           7.937091709872296        2.798113612024955       11.560989660627493        0.247073868171435       -0.395200586763177        0.080403573967985
Mo          6.368154594492102        3.676646488819681        9.999991198951946       -0.018117029406754       -0.010459766552077        0.000000000000000
S           6.391788365350905        5.474654087506043        8.438994011334129       -0.218716644520639        0.411572607675046       -0.080403573967985
S           6.344519549575571        5.556528859295761       11.560989660627493        0.247064355085490       -0.395180275039132        0.080402802636693
Mo          4.775582434195377        6.435060462032760        9.999991198951946       -0.018473384464057       -0.009988483132138       -0.000004113766895
S           4.799217479111909        8.233069334776848        8.438994011334129       -0.218713559195467        0.411586234527886       -0.080407430624450
S           4.751947389278846        8.314941558451110       11.560989660627493        0.247095208337204       -0.395179246597408        0.080405630851433
Mo          3.183010273898652        9.193475709303566        9.999991198951946       -0.018197247861212       -0.010506046429649        0.000000000000000
S           3.206644044757456       10.991480759874472        8.438994011334129       -0.218687848152372        0.411580320987974       -0.080405630851433
S           3.159375228982120       11.073360627895102       11.560989660627493        0.247087495024275       -0.395204443419642        0.080407430624450
Mo         11.145871075382276        0.918231241548875        9.999991198951946       -0.076321174545295       -0.044397314996303        0.000019283282322
S          11.188590231010075        2.683182138418389        8.438995285391856       -0.382562323529626        0.744775899111815       -0.136416366903504
S          11.103150645696749        2.831170313841802       11.560989660627493        0.453692181363525       -0.703690680687064        0.136445163271771
Mo          9.553298915085552        3.676646488819681        9.999991198951946       -0.076006471377807       -0.044174143142235        0.000002571104310
S           9.596019344771079        5.441597385689195        8.438995285391856       -0.382575179051173        0.744782841093451       -0.136449019928235
S           9.510578485400025        5.589584287054880       11.560989660627493        0.453713264418864       -0.703711249521540        0.136449019928235
Mo          7.960726754788827        6.435059187975031        9.999991198951946       -0.076259210931435       -0.043736541188751       -0.000002571104310
S           8.003448458532082        8.200012632960002        8.438995285391856       -0.382567979959107        0.744754558946046       -0.136445163271771
S           7.918005051045570        8.347999534325687       11.560989660627493        0.453713778639726       -0.703696594226976        0.136416366903504
Mo          6.368155868549830        9.193474435245838        9.999991198951946       -0.076609652448826       -0.043897492318528       -0.000019283282322
S           6.410875024177630       10.958430428346265        8.438995285391856       -0.382546382682906        0.744741703424498       -0.136364944817313
S           6.325434164806574       11.106410959423309       11.560989660627493        0.453691924253094       -0.703665740975261        0.136364944817313
