# total energy = -9680.798564038434 eV 

 CRYSTAL
 PRIMVEC
        8.536211121343900        0.000000000000000        0.000000000000000
       -4.268105560671950        7.392572236361851        0.000000000000000
        0.000000000000000        0.000000000000000       20.000043889919510
 PRIMCOORD
12 1
Mo          2.105039905976752        1.208532015547618        9.970704327863499        0.072537280332943        0.100018528745478       -0.180361167541328
Mo          0.049469050690412        4.909816085340090       10.098711642596950       -0.349173448745056       -0.034705023080624        0.589592270521674
Mo          6.400152331394409        1.184069795337182       10.111151463064084       -0.096765824683477        0.354489206905034        0.326106529321573
Mo          4.181740444651753        4.959605243947552       10.122724004481290        0.413129154224042       -0.277869012928539        0.434248205022617
S           2.154695046069609        3.721792317011501        8.885429225560303       -0.060019344781078       -0.306185613131244       -0.542969407635032
S           2.127532822281493        3.707071620932743       11.021231929176153        0.026450492694840        0.001298150565888        0.202523315358284
S           0.056349236854215        7.405928845903418        8.853988652758169       -0.212361131777883        0.253731485670562       -0.041411234451201
S           0.008187933707593        7.341020350157831       11.047677111230076        0.026208294668882       -0.166880353425539       -0.314116441484456
S           6.385505900352407        3.689363250961516        8.895317572523266        0.084036030136506       -0.166575934675289        0.240867993699494
S           6.349379801265768        3.757040039973754       11.325540173062056       -0.021844873545158        0.057869387357439       -0.552960204761049
S           4.341826840779213        7.339255915319050        8.984405739891175        0.382036532698324        0.123638749816375       -0.706287496039701
S           4.222556338128459        7.392433949741686       11.080669567214072       -0.264233161222885        0.061170171070028        0.544767895099556
