# total energy = -9499.364395254548 eV 

 CRYSTAL
 PRIMVEC
        4.554734417592800        0.000000000000000        0.000000000000000
       -2.277367208796400        3.944513873995805        0.000000000000000
        0.000000000000000        0.000000000000000       19.999888929728577
 PRIMCOORD
12 1
Mo          1.100828295706703        0.674671402026259       10.130197571424516       13.797225524979755      -21.328743895410703      -33.944449545302753
Mo         -0.029107030295627        2.607739404095192        9.930822726289785       -1.839454669261303       14.421490165557319       18.113337558075969
Mo          3.422625572326396        0.624978338583438        9.817978725620481       -7.998407773104922        1.120668006731197       30.701120500945535
Mo          2.267624631877169        2.606121562430064       10.003905717387269       10.732894448658946        6.428218687531569       -9.348756384463936
S           1.128477355515258        1.989924296330303        8.864621343519389        2.160728036701800       -7.305441939824249      -55.232807305550466
S           1.182754759149386        1.942811489935048       10.973093534430149       -8.634081431945649       17.862956992652034       74.865623801792267
S          -0.048168593833253        3.981996149938501        8.821000652002104      -13.100602295818758       -0.838256623818991      -51.193946706127640
S           0.011634613596299        3.944702895474135       11.270401090697867        7.874613214367388       -2.164564381442067       37.573053942457022
S           3.374707488886110        2.007357086840198        8.929856071741922       -2.993276037622316        3.288576880659116      -67.028923063131657
S           3.411103460670211        1.986862148381356       11.263715651519725        2.383415494718094       -6.493876464063471       38.642555687876190
S           2.232200640417783        3.963112676516603        8.731407659587727       14.760935584036794       -5.125726812017346      -48.602812208462538
S           2.282642957672298        3.906568837036281       11.014823555690691      -17.143989838599399        0.134699383445592       65.456003207671145
