# total energy = -9682.400156201178 eV 

 CRYSTAL
 PRIMVEC
        7.994704042442199        0.000000000000000        0.000000000000000
       -3.997352021221099        6.923613568356005        0.000000000000000
        0.000000000000000        0.000000000000000       19.999959362479569
 PRIMCOORD
12 1
Mo          1.920821184234035        1.184219533638772        9.922736449722516        0.185558140682204       -0.126521986189095        0.116288733926689
Mo          0.036078500402733        4.559838611416822       10.083294890477287       -0.002440749321048        0.165467788717877        0.044273387768583
Mo          6.000572221609374        1.186339729150828        9.872839902852826        0.110221956197894       -0.134657988666209        0.152850351429232
Mo          4.058354810946550        4.565907391255440        9.936107592233501       -0.171701945337222        0.109361664695922       -0.517151920821201
S           2.036104816526052        3.509461616034192        8.309549078630445        0.018319889536777       -0.237561039336562        2.884545836144818
S           2.016282747323220        3.427666999505562       11.778212920465650       -0.248659468199129        0.008190509888476       -3.087003845453639
S          -0.021550524216807        6.859533617044618        8.386131148123402        0.081564684674174        0.268544131818693        2.394458644838007
S           0.038730343733611        6.912269882790184       11.738884572869665       -0.040151136229095       -0.208638944068959       -2.763407999490334
S           6.005647259735515        3.445713444940566        8.158184547524481       -0.171199037334276       -0.235934044529484        3.102387790979350
S           6.086219486016057        3.435271561990733       11.576680022552555        0.048341131896709        0.093543973873191       -2.654264364439861
S           4.048940247466170        6.857983443930789        8.113315870027083        0.004747286997138        0.223279069117920        2.990763297380601
S           3.913099832669822        6.972990459462936       11.529556838515187        0.185399503546305        0.074927121788662       -2.663739398041383
