# total energy = -9680.948515702186 eV 

 CRYSTAL
 PRIMVEC
        8.376928769394899        0.000000000000000        0.000000000000000
       -4.188464384697450        7.254629737515218        0.000000000000000
        0.000000000000000        0.000000000000000       19.999984452360476
 PRIMCOORD
12 1
Mo          2.107950250901486        1.232695225360029       10.056745080900011        0.217827556650399        0.198614208366056       -0.087415232530536
Mo          0.014071564946830        4.763736564849613        9.938654678344976       -0.129804515061087       -0.002584216941520       -0.157739049163395
Mo          6.302702358333243        1.218436854901642       10.113878248185916       -0.035233642126665       -0.094636436094315        0.237927678811103
Mo          4.183612467554216        4.799517778395207       10.002765827295784       -0.002491657186377       -0.116301332337805       -0.443469213518357
S           2.077489224817335        3.581532439954235        8.476808566498148       -0.169118756837426        0.045186386908901        1.856577452631558
S           2.151722216800205        3.581144588152212       11.594097477902656        0.089323763259509       -0.200207521706679       -1.958558248186078
S           0.016972495379671        7.301979489691345        8.505818708519440        0.003159115865134       -0.122551429803870        1.492612183683278
S          -0.062408957024869        7.272567255089123       11.451462674053293        0.021197983700878        0.312718017850497       -1.397106714332338
S           6.170934106483538        3.682318620750332        8.604226679237907        0.061603916367048        0.170676074717715        0.909290065241283
S           6.323677350278931        3.641025388074477       11.379023182519951        0.083969952755751       -0.340703202707702       -0.961697398603532
S           4.161877688169144        7.214123098450809        8.384782977809085        0.080304329341637       -0.100922529020713        1.731247944621228
S           4.113895477870927        7.265701524269727       11.324283303783462       -0.220738046728800        0.250711980769436       -1.221669468654213
