# total energy = -9671.517913710384 eV 

 CRYSTAL
 PRIMVEC
        8.376928769394899        0.000000000000000        0.000000000000000
       -4.188464384697450        7.254629737515218        0.000000000000000
        0.000000000000000        0.000000000000000       19.999984452360476
 PRIMCOORD
12 1
Mo          2.187659241220909        1.156406535057150       10.181232106263359       -1.642809412575494        0.459764358411370       -0.698700167222244
Mo          0.053487527885463        4.772991395754041        9.891061157541657       -0.497836499695769        0.343032880322578        0.449419520221929
Mo          6.257323697496554        1.231479732995590       10.111203494829848        0.060226318677996       -0.081632818938377       -0.280559416478043
Mo          4.162412973917508        4.862358984944576        9.977599857886769        0.043285826603288        0.183015832740929        0.267408475045169
S           2.042168742354058        3.601238327191359        9.296159320204172       -0.213007764511732       -0.752631908329620      -36.470580355372299
S           2.064602995291375        3.631814954892528       10.803416762909887        0.759934358789580        0.652830895008728       36.239700073473649
S          -0.003157264453185        7.276336035342474        9.051322634596682        1.249584719474199       -0.445997380385929      -15.433854002795110
S          -0.122484939387461        7.317493561772265       10.729274241757729        0.371444868495168       -0.375336234867659       15.881721090234938
S           6.294728359837656        3.662930219113568        9.224372391421966        0.380331633430667       -0.106900089429967       -6.901142214909603
S           6.197676613886955        3.681267316189774       11.053949760080567       -0.406983443592945       -0.093753775984849        6.651636082061342
S           4.179116569883682        7.274240965457248        8.927635605930812       -0.181612009787920        0.062736487815401       -6.208100534051799
S           4.192703948347640        7.264834512142095       10.771711762903482        0.077441404692963        0.154871496526963        6.503051706902502
