# total energy = -9658.617310130032 eV 

 CRYSTAL
 PRIMVEC
        6.211059206962799        0.000000000000000        0.000000000000000
       -3.105529603481400        5.378932549709958        0.000000000000000
        0.000000000000000        0.000000000000000       20.000070264801529
 PRIMCOORD
12 1
Mo          1.519248684048087        0.855601976631478        9.844520147553148        8.839996033888218        5.763183788807170        1.684087720933892
Mo          0.047040078009853        3.590598421003098       10.017534791716383       -6.408349707648293        3.341960205217266       -0.533164244240164
Mo          4.636655696050962        0.876164309242049        9.931873105345792       -4.563311114047528        3.378810043512910        0.549425193445860
Mo          3.113855528348333        3.561086573181214       10.198300837769906        7.163482786250235       -4.633616932950219       -3.096914681235629
S           1.560992591872164        2.717871311926182        8.949165528679346        2.975452371217280        1.404580400339313      -17.856815138677401
S           1.557542969588616        2.688260708262908       10.860699122285917       -1.733089626638153       -5.585355673231603       19.547014374555076
S          -0.004287494170566        5.416646722320557        8.895088320588004        0.413231484175562       -2.587839370381992      -16.130102364947774
S          -0.060357831161423        5.419547908076130       11.017665010564281       -0.281770920828699        0.728397450439173       15.396646009669148
S           4.724608642163000        2.650499952708257        8.897081449487517       -2.341356341980889        3.070366486577026      -12.378937796234982
S           4.724778204079350        2.637012637640337       11.166386959957242        0.913240052792032       -0.874121472053649       12.598865173774984
S           3.147043702114818        5.351526872065156        9.137355032697032       -5.351582127653427       -6.179300309128469      -27.105441408468824
S           3.076261229180429        5.403760016677951       10.818484416173954        0.374057110473662        2.172935639963504       27.325337161425821
