# total energy = -9234.153304714602 eV 

 CRYSTAL
 PRIMVEC
        4.013280256416000        0.000000000000000        0.000000000000000
       -2.006640128208000        3.475601034062666        0.000000000000000
        0.000000000000000        0.000000000000000       19.999977480556058
 PRIMCOORD
12 1
Mo          0.987673488368311        0.547351227771296        9.959514808892072        0.610732404375587       31.009507750697040       20.971818310061948
Mo         -0.034250537692331        2.322941995681119        9.930014791039261       25.323803418926616      -20.886915560662697       19.843778690164864
Mo          2.992733989467385        0.579994848048958       10.198738017088493       20.088523652052718        1.286204186823708      -34.541118266215584
Mo          1.974874212322416        2.315862569308801        9.980129022929153      -20.750390178936467       -4.596668107138658       22.502142423315860
S           0.996733468547170        1.750581610663941        8.867294968516100        0.852894691984505       -3.306199229596714      -93.583173443714841
S           0.955924026931778        1.758804019253286       11.000638769027434       -1.740640702884845       -4.290948120997871      100.128332383005130
S          -0.016995037901845        3.441596109122028        9.074025857100523       23.929439044450834       23.824529761087746     -123.614229451685659
S           0.029090261938631        3.440195474312538       10.977059543536914      -31.858829636133009      -17.527790148854066      122.974427884875965
S           2.981602755348190        1.730674536608041        9.153595960760406       -7.588449047604977      -31.810084840859702     -128.756065517754422
S           3.036704691940756        1.728496930740909       11.079259731906676       -0.379760076942656       26.514546873614368      105.715654179702256
S           2.034946596512553        3.464426456516701        9.049968649931463      -26.199981003096603        8.651301145948372     -115.984289208285446
S           2.023050431176485        3.461344257279774       11.080764310674805       17.712657948029157       -8.867483452951095      104.342721502309075
