# total energy = -9631.05651055608 eV 

 CRYSTAL
 PRIMVEC
        5.446609753057400        0.000000000000000        0.000000000000000
       -2.723304876528700        4.716900211391535        0.000000000000000
        0.000000000000000        0.000000000000000       20.000032712373070
 PRIMCOORD
12 1
Mo          1.387148563179387        0.778512799036185        9.995265823159917       -3.657752235380251       -4.668640772965226        0.337312687454710
Mo         -0.015123056640339        3.153079422991250        9.935669563902939        2.816546812028647       12.171458163099194        5.092282658490122
Mo          4.063448108217250        0.740256901452661        9.957229968610417        2.687589218727123      -11.641990909745720        6.518113235947796
Mo          2.728435038255105        3.111042488917153        9.874106533864131       -8.725646683942216       10.468527332901534       13.000504577060545
S           1.296238655130131        2.379493627137680        8.965786863227230        1.482544253427975       -4.701664293827410      -34.251914025717561
S           1.319069209232021        2.338741003643354       11.124527763090567        2.131358826394768        2.992944365166385       24.769525008986065
S          -0.020659535454322        4.725266748633207        8.709127905816832       -0.361673129456324        0.440581606268311      -22.818846938398298
S          -0.045814157937842        4.729470442040616       11.170073947828559        2.872108376157841       -1.983525213694313       23.952654316592977
S           4.051369706428871        2.318613601961906        9.036504010278001        5.042479339572576       -3.067333611933491      -39.177956021534357
S           4.121772039435915        2.358196293681275       10.969354395886938       -3.156323645853621       -1.387155512212688       32.790541530726507
S           2.747319523590906        4.706809822163020        8.821183186910384        0.484846766503103        2.828288016968600      -25.358123290581670
S           2.765744859724523        4.678953136581009       11.308946156702264       -1.616078155290052       -1.451488912914745       15.145906003862738
