# total energy = -9663.514396109478 eV 

 CRYSTAL
 PRIMVEC
        4.745873239931600        0.000000000000000        0.000000000000000
       -2.372936619965800        4.110044872611764        0.000000000000000
        0.000000000000000        0.000000000000000       20.000016294860590
 PRIMCOORD
12 1
Mo          1.232638063210251        0.655767204562761        9.893709129427661       -1.925175544051852        1.737791147978580       -0.348048847720063
Mo          0.012597920515398        2.730929228549616        9.869204287540596        0.953364706646738       -1.475079052065220       -0.907402360457218
Mo          3.539762235195948        0.686384256595531        9.894810646606647        1.959615229167731        0.313644643843656       -0.045757172065619
Mo          2.384391734205023        2.779165809572957       10.170877143798821       -0.869849582243346       -1.416175052333622        3.850705386277559
S           1.174451284352069        2.035523541512299        7.987292323534460       -0.084674692446996       -0.061844314619990       -3.795263121388327
S           1.186192100160336        2.077339905216661       12.129542691952400       -0.134423246842748       -0.270737798015594        2.698018646248347
S          -0.017980215356805        4.144336179706890        8.030022742424832       -0.019768706815204       -0.444054139748778       -2.358794342739493
S           0.051395434251839        4.072721427103646       11.783233474110647       -0.923369432440333        0.079204668028446        3.012155142346418
S           3.526328566402997        2.070266655739867        8.192572223003758       -0.835497828894853        0.468748053979339       -4.551202498301741
S           3.530683854275282        2.023731944860365       11.914948067075089        0.977495291923079       -0.228580171983333        2.660369194512437
S           2.336643503538071        4.090565910485789        7.988690932378268        0.308446642261055        0.173543113133285       -3.106972327073694
S           2.400431361994020        4.101274024277047       11.957253730310487        0.593836906626296        1.123539158913662        2.892192043250963
