# total energy = -9687.275231154408 eV 

 CRYSTAL
 PRIMVEC
        5.446609753057400        0.000000000000000        0.000000000000000
       -2.723304876528700        4.716900211391535        0.000000000000000
        0.000000000000000        0.000000000000000       20.000032712373070
 PRIMCOORD
12 1
Mo          1.364602866767581        0.805303038428549       10.147028523336184       -0.498314210876482        0.009072655777079        0.814867802135953
Mo         -0.023662251411183        3.141243395336881       10.029161709636119        0.321148154660622        0.113149672675169       -0.535789855961068
Mo          4.062406716432466        0.814167395801650       10.129557977892276        0.158575172284858       -0.709771342379130        1.383597618069144
Mo          2.762758483596922        3.152926917918164        9.862067347665974       -0.519204947612370        0.427208007202230       -2.632544960785008
S           1.291794221571636        2.390358524273079        8.108396261747268        0.555616926844098       -0.323510228189798        1.988770780706640
S           1.360278258623653        2.315419710002713       12.112421857558662       -0.365246193115294        0.180740148316554       -1.660089547529492
S           0.014575672360157        4.669267975118122        7.932789938055043        0.036501967882562        0.277117222028429        1.362339727637854
S          -0.030467790297628        4.718978093012326       11.919327014610346        0.246822928390824       -0.299517196994017       -1.740818880413497
S           4.133037262388164        2.363817194946430        7.846138734171702       -0.349808768619944       -0.057949091591035        2.330479285199373
S           4.076699165085465        2.344695237425396       11.953118326179290        0.047112401147179        0.419807854778507       -1.425542356664575
S           2.737718239918216        4.673002170764819        7.816448719746811       -0.045134964822710        0.256620121362332        1.798035978607605
S           2.669877447478034        4.750704050162910       11.940384152576639        0.411931790947089       -0.292967565875891       -1.683305591002929
