# total energy = -9699.21664132059 eV 

 CRYSTAL
 PRIMVEC
        6.083633325403599        0.000000000000000        0.000000000000000
       -3.041816662701800        5.268578550632652        0.000000000000000
        0.000000000000000        0.000000000000000       20.000011477230910
 PRIMCOORD
12 1
Mo          1.455147296919949        0.919859351157673       10.137795166529187        2.341023641083234       -1.885528858488289       -2.458831640546431
Mo         -0.049037734782748        3.512160605988728       10.144942218959871        1.766300323894071        0.263831040508872       -3.616763690477538
Mo          4.644291916226380        0.833367119443745       10.123775433530794       -2.269986600114909        1.150301783671681       -2.136775371843679
Mo          2.992121287156575        3.540967826511179       10.008244803228049        1.013378652108766       -1.614411822587038        0.865901137355183
S           1.488830549552712        2.638876334843680        8.360256063706128       -0.481066471836784       -0.078165427666529        1.446676319868145
S           1.572215869727356        2.594420184318293       11.638170018680183       -0.749322897083240        1.300690302724527        1.488755784329396
S           0.022730279193705        5.233499712515043        8.402953435837139       -0.318323796576590        0.546152691880675        1.786493262920349
S           0.051320922369772        5.263108755909782       11.680689140354762       -0.658819768276944        0.306116707535749        0.570188660518425
S           4.504825838968168        2.662150490856677        8.372377703106993        0.581676354573457       -0.610850160952964        1.383458778436429
S           4.582951858133002        2.649851209362708       11.606146381218593       -1.272491973320060       -0.402441073609278        1.644987652146538
S           3.068464193393732        5.231324205237878        8.509074510475482       -0.107136116805582        1.169462938538540       -1.183294965503012
S           3.046423189855795        5.234794309686688       11.747536711697629        0.154768909465012       -0.145158121555946        0.209204072796196
