# total energy = -9645.684699825262 eV 

 CRYSTAL
 PRIMVEC
        6.656943956970200        0.000000000000000        0.000000000000000
       -3.328471978485100        5.765079890335118        0.000000000000000
        0.000000000000000        0.000000000000000       19.999962657666302
 PRIMCOORD
12 1
Mo          1.678168307250093        0.977766602844617        9.922912557254515       -2.396552295077266       -0.702846587142241        0.092232453564894
Mo         -0.080610931458139        3.875697402440691       10.105097802385687        0.230222850526699       -4.014620227992473       -0.787933170499626
Mo          4.966331158686947        0.910849005105966        9.812003211070621        4.709347010614750        5.848862754597473       -0.434852671645790
Mo          3.327901478387988        3.816394682894418        9.843459268350493        4.997367771799084       -1.898309046679728       -0.085373004377467
S           1.679012407743837        2.900128922490665        9.261591773737225       -4.466479983314588        1.426883958893294      -23.265414846830517
S           1.667595083163237        2.873601000822139       10.921263762202877        0.194334348132394        0.425838122826106       23.379100594754227
S           0.013707978996193        5.782683512934930        9.307512038846800       -3.584118379059289       -3.778759459935811      -61.012339975330725
S           0.030520090959521        5.784717875008180       10.717644488919049        0.046331299657940        2.332190355117373       61.812993684401810
S           5.052711663472593        2.836387352713885        9.189152906680661        0.442421745622650        0.991883705860136      -15.236860618585789
S           4.948828721635281        2.841023914179914       11.019445031541043       -1.623975816397671       -1.762291458054633       14.909990728394712
S           3.347034866709111        5.746813236117191        9.190442356725127        1.566363796581617        0.787330246539038      -32.083858341733567
S           3.285164563878635        5.731016308107301       10.759878138465256       -0.115262091975889        0.343837635971465       32.712314910777415
