# total energy = -9697.303670240366 eV 

 CRYSTAL
 PRIMVEC
        6.338432170797099        0.000000000000000        0.000000000000000
       -3.169216085398550        5.489240720714558        0.000000000000000
        0.000000000000000        0.000000000000000       19.999965611692456
 PRIMCOORD
12 1
Mo          1.539877726869960        0.921893267081584       10.199304313105198        2.556526148106515       -0.210037624813350       -9.855293758253625
Mo         -0.019435534565315        3.606398669044589       10.030456086193769        0.349339284973022        1.053503820184334       -3.955431092792946
Mo          4.715519080960046        0.883519764876361       10.161597613964345       -0.248990112213336        1.253321305367256       -7.599057423986144
Mo          3.120605381394272        3.710348322802445        9.978774411802741        1.783494069743268       -1.154188007835553       -2.512242990141556
S           1.645557138767226        2.727130090625181        8.494615306773390       -1.097738641388274       -0.605955806789320       -0.660164455830834
S           1.617865162456230        2.721603611615464       11.388600187392285       -0.422921462097362        2.122532739520973        5.637694358108787
S           0.039982196290171        5.433664713597792        8.367912583052025       -0.450673447793693        0.268113214736414        1.723320972924480
S          -0.033082179029041        5.478185227322253       11.443970195463500        0.123028883874152       -1.468314733737248        4.812077283075502
S           4.718093118264607        2.728584760808379        8.428495951583720        0.127694409754246       -0.406205684539308        0.598167160504426
S           4.732618269427206        2.769621672211771       11.411872374950585       -0.718758637493133        0.382064814845729        4.119732885706446
S           3.187339564504510        5.488720335433335        8.442459517655985       -0.329880910447980        0.908554215187892        0.255344853624799
S           3.180376162921672        5.535329996401292       11.349583334321729       -1.671119327906995       -2.143388252127820        7.435852207060663
