# total energy = -9400.191615777783 eV 

 CRYSTAL
 PRIMVEC
        4.204419078754800        0.000000000000000        0.000000000000000
       -2.102209539377400        3.641132032678625        0.000000000000000
        0.000000000000000        0.000000000000000       20.000118839462914
 PRIMCOORD
12 1
Mo          1.030203341122486        0.576536852360962       10.064514425534492       31.355144902574757       19.185790417021625      -24.480331567126150
Mo          0.036295488581167        2.416147205359403        9.964759117146230       -7.665131719416192        4.533093182207915        3.339291913164824
Mo          3.112597453381715        0.639609865612810       10.123262352880023       -9.722439656370991      -12.582290806953953      -40.218852431736856
Mo          2.060701412022393        2.442558945570232        9.998106887511282        1.967181217819419      -20.184527144308415      -19.490502530273073
S           1.053182173155513        1.829159848936287        8.873079601138008        3.358359994055677       -9.470312282679153      -75.639487632399664
S           1.070965184091014        1.796915318137501       11.200360102639310       -2.476956897486976        3.821361629903191       68.779973138924106
S          -0.028032543765690        3.633252110441223        8.787230408852730        2.478353264237488        6.378821860205363      -58.548569757626524
S          -0.001546805779074        3.621971233611016       11.172321672686909       -3.056806482448504       -9.896925850565017       74.516499461139531
S           3.191799459103482        1.816153058074252        8.710495556246375       -3.673530588307046       -3.556292859779706      -52.100489289303745
S           3.113273944411486        1.819440072910022       10.996272555253656        6.028994065413528       21.404111961588452       90.871564968527977
S           2.113862927737985        3.648348918027308        8.895860825474333       -6.285961285857648        6.906675231383737      -71.509269269098041
S           2.150062976006064        3.627022422692232       10.944432488454517      -12.307207071323942       -6.539505080913613      104.480172995807607
