# total energy = -9451.164393359348 eV 

 CRYSTAL
 PRIMVEC
        3.631055529463300        0.000000000000000        0.000000000000000
       -1.815527764731650        3.144584864903454        0.000000000000000
        0.000000000000000        0.000000000000000       19.999933739505504
 PRIMCOORD
12 1
Mo          0.871844028646162        0.539915444686910        9.973289504777785        4.671401881883243       -7.117011618517856       -1.941612099681890
Mo          0.018640749771606        2.111651236325971        9.877886788691113      -15.685808855387778       -6.132158597392162       -5.383964929321673
Mo          2.731086070897021        0.500091480061968        9.822356330267924       -2.947994776964393       15.392472078933038        2.261986094834908
Mo          1.795109250172819        2.088334413243522       10.010231863734544       14.361408342941521       -0.664503194353185       -3.487182604380950
S           0.903709445761626        1.581082491677452        8.137057461417136        2.431866155658390       -2.382501724246483      -24.187223876065389
S           0.915611682681654        1.570755043540552       11.503588416925716       -3.325906229908488        0.781807257371712       37.529419474109361
S           0.031793159110428        3.121278571882041        8.335359933942161       -6.227353734452940        2.068392481854094      -34.713078864646342
S          -0.004858352298422        3.162191853165822       11.508878501726590        1.891871258599066       -1.065326272020468       30.360738943386956
S           2.719606488840622        1.551048942076602        8.131064041160203       -1.740099999648549        2.270899342144796      -25.586677751521908
S           2.732615834591583        1.594091837428413       11.577014532525864        1.943005895328092       -1.360720960364567       28.301312673591529
S           1.838211694835313        3.139699642794114        8.272288136289832        4.454642104852597       -2.272264084312301      -29.222105345292842
S           1.781467374548625        3.160721275676389       11.785089991008441        0.172967699988810        0.480915548013814       26.068387770767373
