# total energy = -9684.568656985235 eV 

 CRYSTAL
 PRIMVEC
        8.185842864781000        0.000000000000000        0.000000000000000
       -4.092921432390500        7.089144566971965        0.000000000000000
        0.000000000000000        0.000000000000000       20.000036021847581
 PRIMCOORD
12 1
Mo          1.992257339081816        1.221971981258783       10.074076149905752        0.313026293257211        0.023286491731518        0.607070123397076
Mo         -0.008769493461040        4.768550614830924        9.993298252516093        0.360052562410020       -0.002846212470663        0.095686989315194
Mo          6.199087230688603        1.116484298597497        9.821959556929075       -0.544357289741322        0.045360707781088       -0.322517781926315
Mo          4.002244395224461        4.742301072516431       10.011856376874837       -0.105691413294051       -0.175890531367897        0.232048077476043
S           2.101097942980517        3.526055906925848        8.790901895884145       -0.166679550178964        0.237229109770200       -0.725898594160730
S           2.009881458769690        3.517737453406658       11.222116054162694       -0.008748182413215       -0.040270435469057        0.455587599460520
S           0.004588164925710        7.151623012637407        8.831353875569034        0.397255156216932       -0.099559329515794       -0.110133767320077
S          -0.077298914172127        7.082851290977522       11.373801359615657       -0.216572857747343       -0.042565403175754       -0.249041277189096
S           6.110527871071683        3.563293306117737        8.824958276538782        0.104480937385119       -0.219164788001792        0.066433478702091
S           6.139961706260577        3.477514677321983       11.233455083698987       -0.033609218423897        0.197529459457861       -0.114929133967803
S           4.118106815132572        7.108896187220395        8.736258939008874       -0.449723424751317        0.193343187421065       -0.574339965536611
S           4.067831824009946        7.056439668974306       11.057478289544786        0.350566987280828       -0.116452513271206        0.640034251749709
