# total energy = -9684.341885781463 eV 

 CRYSTAL
 PRIMVEC
        7.548819292434800        0.000000000000000        0.000000000000000
       -3.774409646217400        6.537466227730848        0.000000000000000
        0.000000000000000        0.000000000000000       20.000053200316945
 PRIMCOORD
12 1
Mo          1.933856526335947        1.076925883487687       10.058069471698005        0.509540166512803        1.314912880433618       -0.162506390774147
Mo          0.046417689829182        4.365763767774653       10.031897715211132       -0.080036677383014        0.259120777413792        0.085786952171304
Mo          5.618540906443467        1.088120027616439        9.967280576949822       -0.727704794938183       -0.223003189625506       -0.180549115266355
Mo          3.714482589382477        4.358635417716807       10.125925808317701       -0.406553040731527       -1.413616032214335        0.567584903184152
S           1.957730422230201        3.254422062250826        9.025115460588751       -0.315079577158811       -0.518874817819024       -5.055588372005205
S           1.838327727954043        3.330360919686933       11.072767418230434       -0.064589482691288       -0.601986021735388        4.873095758991268
S           0.037771272211627        6.482116020032928        8.988500667492724       -0.186252338845780        0.070172635699457       -4.941928592235024
S          -0.034693618586101        6.589077505233225       11.027558294369973        0.374033199203583       -0.405873240752085        5.128819850501724
S           5.644675673715806        3.286013116107736        8.951697908796318        0.245795515108731        0.139632304173879       -4.399927462482965
S           5.598925299512075        3.279503014349941       10.940293188467496        0.591984168860840        0.084563877851255        4.275211934181754
S           3.796696025414455        6.481399637082076        9.149564540561901        0.112942955888682        0.648160484030446       -9.201190937942966
S           3.755012955045489        6.537234478978569       10.958207291530373       -0.054080093826036        0.646790599654322        9.011191471676460
