# total energy = -9670.810951026435 eV 

 CRYSTAL
 PRIMVEC
        7.803618137828300        0.000000000000000        0.000000000000000
       -3.901809068914150        6.758128397812754        0.000000000000000
        0.000000000000000        0.000000000000000       20.000017783330357
 PRIMCOORD
12 1
Mo          2.007504176810744        1.072802403497946        9.828091282279750        0.306129563057296       -0.165275727225954       -0.471863203960780
Mo          0.015999758267989        4.489302119335112       10.103455214423857       -0.008024673660510        0.305732841662334        0.351514696329325
Mo          5.771666005753555        1.161912699375621        9.988468901162959       -0.173610733176626       -0.178941146631168        0.023566742101258
Mo          3.984753726101127        4.453724643882940       10.177588026009598       -0.282271514837767        0.096678664247384        0.341953273623002
S           1.985248257881657        3.400526489870846        7.676171787486730       -0.067335422093878       -0.452318954551799        3.700799720614044
S           2.021805867771941        3.370015123313751       12.024259632999700        0.125479660502007        0.378421302928678       -3.995198106038195
S          -0.081246589880186        6.762812129419078        7.922051309220679       -0.213674966080058        0.357783305746418        4.152174051442518
S          -0.096456621992627        6.810126246550545       12.143575393603468        0.210220173219327       -0.230365546815879       -4.094764634646056
S           5.783627391635218        3.438062673475614        7.690722413866524        0.031460289441982       -0.249894883819864        3.907431917769406
S           5.955560608256919        3.325259032207864       12.313874532587109       -0.205737709966072        0.232197201525996       -4.161351865385858
S           3.881353444689461        6.736535006063569        7.990735634622588        0.315865049525376        0.316966510611583        3.921893865289716
S           3.868450942460375        6.701900988044259       12.320808827664383       -0.038499973041507       -0.410983567677730       -3.676156971359243
