# total energy = -9481.310941428683 eV 

 CRYSTAL
 PRIMVEC
        4.013280256416000        0.000000000000000        0.000000000000000
       -2.006640128208000        3.475601034062666        0.000000000000000
        0.000000000000000        0.000000000000000       19.999977480556058
 PRIMCOORD
12 1
Mo          0.966308389595255        0.606289057632944        9.910773118849875        3.988145052696261        0.068587807003056        2.477470604128022
Mo          0.045100039537526        2.298892815072572       10.135335412941581      -23.256939972805405       -7.369508202788545      -22.492069093741506
Mo          2.988719906554918        0.563742266994550        9.853933833234306       -2.659975815553076       15.830146537558550       20.741516012412085
Mo          1.969888112931845        2.332709517169184       10.029675375662762       17.660767663743563      -12.222459873735417       -1.305671817324264
S           0.987517773094362        1.741025990373414        8.453371664117764       -0.641577428556296        3.929705651513396      -36.635089122182713
S           0.981352571964456        1.715522396999942       11.357868871211535        7.871621220282376       -6.619929480826507       58.927736423694547
S          -0.021072530642363        3.477289421066540        8.619001746940180       -3.934001195483348       -9.646288174710126      -52.270222025850288
S          -0.031224925707019        3.466600851759627       11.265538944304403       -0.604609833683275       12.310545650269882       56.001022934210653
S           3.013881167122518        1.707673624802469        8.554111018474190        1.494941604187722        9.542853162558128      -41.807707734597479
S           3.014691047078263        1.713529803352632       11.607708810998277       -3.441742706587129       -1.313130590926244       30.873035333719592
S           1.985005738329738        3.442087735953439        8.658818303020134        3.438715488373075       -6.753721778671692      -60.506857525639234
S           1.965031642493556        3.503979741411835       11.353601148986861        0.084655666275105        2.243199035645087       45.996836011170608
