# total energy = -9626.768912502157 eV 

 CRYSTAL
 PRIMVEC
        4.363648512978900        0.000000000000000        0.000000000000000
       -2.181824256489450        3.779028703452552        0.000000000000000
        0.000000000000000        0.000000000000000       19.999988775209427
 PRIMCOORD
12 1
Mo          1.128182486558929        0.610715736728516       10.021574811325650       -6.470628538896595        1.638478901586933        5.125967724491151
Mo         -0.028121532841893        2.517804682840814        9.862808696559128        5.267241935877102       -2.205100669096731        4.670480655209134
Mo          3.239334400826727        0.651422468246691       10.083438256294151        6.032238027720877       -5.856488907090005        2.975298362069139
Mo          2.221918331756402        2.498353719594211        9.893704200760721       -5.365950486976869        6.192205967210213        2.437611031127629
S           1.115681942663798        1.901505221475090        8.305546906259579       -0.340621955811521       -2.163714374357333      -13.592449665135879
S           1.067216644089547        1.899824344067891       12.010398821369705        0.122892358235315       -0.362680488124802        5.405479415963055
S          -0.018504051519287        3.755914893644154        8.283853464042155        0.876269629704271        2.923074605554592      -12.931582269386819
S           0.036173773442892        3.775398147889753       11.900563170108917       -0.747057754186533       -0.635187720126223        6.914284157477395
S           3.233142819951661        1.906697090475833        8.157239584248964        0.402010156526998       -2.083605706053652      -10.230097517418777
S           3.254852844033433        1.897508992166905       11.696785148201316        0.580991412385395        1.993713985852165       10.428682672306136
S           2.187429799369223        3.795917768657185        7.991357231487477       -0.681075761401198        0.393624242710997       -7.418169437171792
S           2.218751632030534        3.744049696972513       12.010483039786005        0.323690719712327        0.165680161933845        6.214495127580060
