# total energy = -9585.44230110267 eV 

 CRYSTAL
 PRIMVEC
        4.363648512978900        0.000000000000000        0.000000000000000
       -2.181824256489450        3.779028703452552        0.000000000000000
        0.000000000000000        0.000000000000000       19.999988775209427
 PRIMCOORD
12 1
Mo          1.134425994851299        0.598208647360616       10.082032725108121       -7.436362314155677        6.887319186810216       -9.154780705382723
Mo         -0.008592896651758        2.539850271493235       10.188666767454935       13.043667504877838       -6.510815927696456      -24.151383710432103
Mo          3.260358022997408        0.631316521358289       10.009783360313879        5.845386878681404       -6.657514654954679       -9.038787134230770
Mo          2.220021890112662        2.492768685862449        9.984064888708083      -11.298283885873181        5.885412287909762       -1.904191733339959
S           1.132083588329532        1.875599549348089        8.390016668714418       -3.094046614378335        0.046472196174103      -16.228050383392780
S           1.098938623319498        1.886797107797244       11.623528653330277        3.802662502480757       -1.274944035500070       22.372424040249143
S           0.024578686614205        3.804467901553516        8.412057893718327       -1.478122468236425       -2.525939777019346      -19.234508987030974
S           0.029282263346345        3.746061338936996       11.458377648059564        0.185436013227501        6.687802777941941       37.758165739431092
S           3.254245860525278        1.876974534994528        8.554736981876900        5.231703360779325        1.644391927278017      -26.398107987196003
S           3.319797897581801        1.864178572095069       11.409106383604966       -7.789006239497753       -2.215561464090532       38.027896435888643
S           2.203949699909658        3.784507264160597        8.405095256151018        0.957294639583873        0.720174287525966      -17.681520075067596
S           2.129518510858926        3.814581093347196       11.512976927348511        2.029670622510674       -2.686796290158060       25.632844500504039
