# total energy = -9684.205712880257 eV 

 CRYSTAL
 PRIMVEC
        6.784369838529400        0.000000000000000        0.000000000000000
       -3.392184919264700        5.875433889412424        0.000000000000000
        0.000000000000000        0.000000000000000       20.000016987341937
 PRIMCOORD
12 1
Mo          1.731865084916948        0.953272484448750        9.883417741121873       -1.981836512383806        2.763344750324319       -1.152317786560792
Mo         -0.029693829909275        3.958879261255157       10.182864221743932        4.126799823011652       -2.876915055664529        0.127078887382542
Mo          5.132300476342283        0.938424212620144       10.107964778726567        0.575924280012151       -0.723256270261814       -0.198848693079087
Mo          3.354078470755648        3.867434097075587        9.954789990260185        0.085916021607643        0.226590394358179       -0.373580941955535
S           1.634931365538007        2.972946141966744        8.785396655546196       -1.111657314567978        0.118173610496014       -5.974149068055403
S           1.766166858820553        2.885142149079512       11.155173647959595       -0.828681060038965       -0.470595392425745        6.751603445831061
S           0.050443825060418        5.860210441931747        9.087317395848364        1.090151569681248       -0.224253774761667      -10.585125627787091
S          -0.050062543475492        5.869227547884137       11.077379314332131        0.493035990839424        1.994998766675643       10.389150143773918
S           5.162648997940977        2.920651540814375        8.997351902730580       -0.183932431427281       -0.475207696446632       -9.065343042202302
S           5.124666024962986        2.905597024142678       11.029092240443381       -1.875693870283431       -0.155327096210614        8.983084159364552
S           3.461762024143738        5.823377419641387        8.782233782327474       -1.168343479722165        0.282899892731019       -7.379295368453247
S           3.439582562267618        5.832186245439734       10.982979557087880        0.778316726161078       -0.460452385924603        8.477743634630954
