# total energy = -9656.16399446551 eV 

 CRYSTAL
 PRIMVEC
        4.554734417592800        0.000000000000000        0.000000000000000
       -2.277367208796400        3.944513873995805        0.000000000000000
        0.000000000000000        0.000000000000000       19.999888929728577
 PRIMCOORD
12 1
Mo          1.106543576453898        0.669571465898880       10.141610369454680       -0.242981698552369        2.708901873680206        0.306292828180952
Mo         -0.028927573759574        2.665115849027051        9.975134826491661        1.109462362818922       -1.916865734923414       -5.142930585173351
Mo          3.392472319535047        0.642850205491189       10.136558713512127        0.353529670776713        0.820345539867431        0.500119897433073
Mo          2.299547854463194        2.632241142421191       10.094991296270290       -1.230305036698671       -1.457044297996372       -0.799334732560288
S           1.135222461714271        1.949391714748145        7.692055525262158        0.141567831498102        0.395916896423816       -2.001661783493820
S           1.143545327915539        1.949292421537841       12.333094872493275       -0.068962931121818        0.281884563639181        2.954451591216945
S          -0.000220904619253        3.979742467348677        7.909331843078355       -0.325124367475328       -0.258193380089341       -1.211005299309527
S          -0.029127526600506        3.933388024233951       12.091825580185525        0.597921877153296       -0.371566224618578        2.703812115589037
S           3.431815204487330        1.934597481886362        7.771720107593065       -0.149237435653465        0.777652867028355       -1.930762553716486
S           3.412637039748614        1.996114635877253       12.207684359565834        0.168191616623405       -0.204192219165607        2.947655391195533
S           2.264182163604353        3.982690291463742        7.903107798496714        0.324716333221404       -0.610857874265892       -1.059373394212587
S           2.309704001267542        3.939926345490405       12.082310284513731       -0.678778479700622       -0.165981752469354        2.732736524850519
