# total energy = -9673.013976677505 eV 

 CRYSTAL
 PRIMVEC
        8.727297025957800        0.000000000000000        0.000000000000000
       -4.363648512978900        7.558057406905104        0.000000000000000
        0.000000000000000        0.000000000000000       19.999988775209427
 PRIMCOORD
12 1
Mo          2.185350084487937        1.184052460294854       10.023248270530376        0.167654770043573        0.047543832450320       -0.088932955404459
Mo         -0.004811358850411        5.097319210222473        9.992916549716661       -0.137186412644212        0.158837682034862       -0.661155102321300
Mo          6.512557768734950        1.217244989073680        9.975472428421176        0.213782952461059       -0.042399824058220       -0.116087159348821
Mo          4.463706973381505        4.983376492981271       10.104090095611527        0.016195386045803       -0.340792677137674        0.185802138481180
S           2.161409363286329        3.757981081215049        8.296015825177530       -0.128768360024342       -0.020250274652381        2.336222618006027
S           2.264923833311215        3.744493916391134       11.624471637773931        0.285116698866706        0.035301005059575       -2.096696740756114
S          -0.078437454750498        7.558795736233500        8.299536416797801       -0.003081468514986       -0.119083010090299        2.575708643139143
S          -0.065926001734085        7.571929445527863       11.675158906170994       -0.119434737159844       -0.111085590135469       -2.477710488160103
S           6.559104807422895        3.815147494924181        8.163145346146431       -0.004816706813495        0.075156721403504        2.656995648547887
S           6.478465455632748        3.750344696317336       11.559553638846346       -0.408152010501631        0.282518855072345       -2.250895636395700
S           4.321571595827650        7.597129515690316        8.424418800861041        0.000184862399856        0.150901968583462        2.274868098757004
S           4.296006724649511        7.599700577394164       11.756412659671767        0.118504768731083       -0.116648945640455       -2.338118807434314
