# total energy = -38803.45301677603 eV 

 CRYSTAL
 PRIMVEC
       12.740577282373799        0.000000000000000        0.000000000000000
       -6.370288641186900       11.033658440967770        0.000000000000000
        0.000000000000000        0.000000000000000       19.999979849788435
 PRIMCOORD
48 1
Mo          1.590438113601927        0.918229967491147       10.041391704831021       -0.134065863343721        0.032673850676086       -1.081099996959506
S           1.640255044833737        2.734520294577715        8.438995285391856       -0.051398432031185        0.033976886340162       -0.037299781549813
S           1.540621182370117        2.779830883624749       11.560989660627493        0.036033769787795       -0.024655347665918        0.039110353204592
Mo         -0.002132772637069        3.676646488819681        9.900460535164314        0.186687369694955        0.128755761613225        1.985673885565797
S          -0.007422660324711        5.570061900485099        8.438995285391856        0.007187779207755       -0.088985663042804       -0.035853535375696
S           0.003152018819659        5.461119772258977       11.560989660627493       -0.015312211715475        0.088463214647106        0.035813169038036
Mo         -1.594706206991522        6.435060462032760       10.058121356860505       -0.005457168897002        0.018124999830114       -0.847041058802971
S          -1.639234524593419        8.242192862168757        8.438992737276401        0.076080004961060        0.056640913718340       -0.048674089904794
S          -1.550176615331898        8.305820579174659       11.560989660627493       -0.068037076459952       -0.040818594907852        0.011208215016585
Mo         -3.187278367288247        9.193474435245838       10.041391704831021        0.104686368619451        0.040015124811120       -1.124805942006973
S          -3.137462710114166       11.009760940159222        8.438995285391856       -1.000344438811545       -0.091616674082758       -0.282015175738105
S          -3.237092750404601       11.055080447610353       11.560989660627493        0.922475202361474       -0.060141729346212        0.151192503370440
Mo          4.775583708253105        0.918231241548875        9.900460535164314       -0.015602746502453        0.167738588044064        2.637027938259125
S           4.770293820565464        2.811646653214293        8.438995285391856       -0.010123466108389       -0.064137739664101       -0.005886286206265
S           4.780868499709834        2.702707073103627       11.560989660627493        0.011596451767326        0.059638307122404        0.078656251479221
Mo          3.183010273898652        3.676646488819681       10.058121356860505       -0.003098952024291        0.001692815077402       -0.774725664771942
S           3.138481956296756        5.483778888955679        8.438992737276401        0.092836920188067        0.062933691515943       -0.025913389004577
S           3.227539865558277        5.547405331903853       11.560989660627493       -0.093838365316633       -0.066349403591169        0.027985441967637
Mo          1.590438113601927        6.435059187975031       10.041391704831021       -0.004189614472398        0.004710520205511       -0.558027851355155
S           1.640253770776009        8.251346966946143        8.438995285391856       -0.090116948939003        0.049410454179047       -0.031601185958145
S           1.540623730485574        8.296662652224091       11.560989660627493        0.094722310978254       -0.044385487916479        0.039382633150973
Mo         -0.002132772637069        9.193474435245838        9.900460535164314       -0.021019291951365       -0.011322886268790        1.442332953358037
S          -0.007418838151526       11.086891120968984        8.438995285391856        0.631322321907258       -0.380651993027636       -0.754789836176618
S           0.003149470704203       10.977950266800590       11.560989660627493       -0.409354001766342        0.313380077210204       -0.495057907268448
Mo          7.960726754788827        0.918231241548875       10.058121356860505       -0.002816644771103        0.005178718300279       -0.913391233725433
S           7.916197163129203        2.725363641684872        8.438992737276401        0.134786543881686        0.062658840465253       -0.050909150881079
S           8.005256346448451        2.788990084633047       11.560989660627493       -0.113364359885016       -0.061532953888105        0.017952478730943
Mo          6.368154594492102        3.676645214761953       10.041391704831021        0.005638945971687        0.003064242116112       -0.525480756121530
S           6.417968977608456        5.492932993733064        8.438995285391856       -0.096364475300758        0.052687326621558       -0.017468596899888
S           6.318340211375748        5.538248679011011       11.560989660627493        0.097925392727081       -0.051981815599020        0.043458347702458
Mo          4.775583708253105        6.435060462032760        9.900460535164314       -0.004572194793658       -0.000956193692719        1.352603212728051
S           4.770296368680921        8.328475873698178        8.438995285391856        0.020328950444253       -0.083203506561076        0.013188993776656
S           4.780864677536649        8.219535019529783       11.560989660627493       -0.015791465558774        0.085937361773412        0.074140878090804
Mo          3.183010273898652        9.193475709303566       10.058121356860505        0.009269345256759        0.009450608110582       -0.897099688378453
S           3.138479408181299       11.000610657555020        8.438992737276401        0.389709736399720        0.293564319186136        0.591387158440165
S           3.227542413673733       11.064230730214554       11.560989660627493       -0.521674236191253       -0.345731254295442        0.800600230101445
Mo         11.145871075382276        0.918229967491147       10.041391704831021        0.009127934519735        0.097899424573554       -1.721535598091935
S          11.195690554729543        2.734517746462258        8.438995285391856       -0.636346516838533       -0.322495927539683       -0.884148778860861
S          11.096060514439108        2.779833431740205       11.560989660627493        0.466894801993022        0.168564940969151       -0.630636094167041
Mo          9.553300189143279        3.676646488819681        9.900460535164314       -0.009418469306713        0.017070075731909        1.372422827408583
S           9.548014123628823        5.570061900485099        8.438995285391856        0.046220485062199       -0.086739546317989        0.049767837678073
S           9.558582432484553        5.461119772258977       11.560989660627493       -0.049560349560293        0.064214615682957        0.106131843462275
Mo          7.960726754788827        6.435060462032760       10.058121356860505        0.007065394642620        0.011547857895875       -0.861731063275537
S           7.916195889071473        8.242196684341941        8.438992737276401        0.401964905091150        0.278219968666791        0.577140155240133
S           8.005258894563909        8.305816757001475       11.560989660627493       -0.519291850938032       -0.338314132583276        0.789401785281236
Mo          6.368154594492102        9.193474435245838       10.041401897292847       -0.000615265261273        0.009028947003817       -0.749144205333726
S           6.417968977608456       11.009760940159222        8.438995285391856       -0.430402347196405        0.158528121075993        0.448598823726323
S           6.318340211375748       11.055080447610353       11.560989660627493        0.569616589809552       -0.211749723173074        0.669160235589058
