# total energy = -9698.694618985655 eV 

 CRYSTAL
 PRIMVEC
        6.402145111576700        0.000000000000000        0.000000000000000
       -3.201072555788350        5.544417720253212        0.000000000000000
        0.000000000000000        0.000000000000000       20.000000427745366
 PRIMCOORD
12 1
Mo          1.629801123413703        0.901830488568118        9.908592946827635       -0.375925531975406        0.780857234329337        1.564223866464785
Mo          0.004292638297312        3.720773087365700        9.862903398024358        0.326965792381822        0.060948798988977        4.087677385616804
Mo          4.762388652514495        0.919359561883615        9.847778330198256        0.412954319130993       -0.431216358820806        4.242376103934167
Mo          3.147204266605033        3.700448837494489       10.121901538298681        0.165110405218851       -0.487723575115049       -1.941380700294031
S           1.588997691759580        2.765161378787782        8.532449294236178        1.099586751165972        0.205270540313029       -2.849270799238769
S           1.519199585109638        2.801597267046787       11.470803423225869       -0.350888118209090       -0.824339750412304        1.441523569721393
S           0.058420854572160        5.506942123628086        8.419635174581554       -1.028814019720668        0.485333733659330       -3.030048999899104
S          -0.034001152473073        5.566844434579065       11.407675711567677        0.610118167556037       -0.311032401865161        1.184699045566452
S           4.768157625474537        2.803455169558167        8.692731478606079       -1.528792506416716        0.825502403781079       -5.816760974630260
S           4.811510391312089        2.771299755520762       11.432066604013762        0.507073191927797       -0.405364162098795        2.002480165995547
S           3.201618018551856        5.524119078962446        8.588583302574484        0.188549106325494       -1.051084668139487       -3.920104119579844
S           3.170310888741735        5.572590359816704       11.364649455130815       -0.025937814495518        1.152848719600713        3.034585713453290
