# total energy = -9695.620516951825 eV 

 CRYSTAL
 PRIMVEC
        6.911795720088600        0.000000000000000        0.000000000000000
       -3.455897860044300        5.985787888489730        0.000000000000000
        0.000000000000000        0.000000000000000       20.000075772584175
 PRIMCOORD
12 1
Mo          1.729583569709951        0.988697127600502       10.136064790781719       -0.065923371607078        0.092720963383706       -2.349138817615441
Mo          0.035063539688009        3.985005498931091       10.003321680438702       -0.576347483781501        0.183295826000238       -0.885739006876313
Mo          5.154226289508010        0.958181549496311       10.177225916653990        0.351176081891758        0.655613858313376       -2.334051577527050
Mo          3.480792074689343        3.999167768361552        9.852863637665095       -0.455848566547938        0.006866648279493        1.086366132806309
S           1.743777633400725        3.018856031328662        8.310135626990737       -0.068050446202362       -0.226147650196076        2.500292754421237
S           1.656367608826625        2.995041439175096       11.592557782154392        0.604678225057909        0.032732728964774       -1.566546859208456
S           0.027634741648058        5.994169823159481        8.080276948523469       -0.091255433927268       -0.185892898463306        3.976921411053818
S           0.008608641569370        5.950702922234989       11.661052295381326       -0.156805224078169       -0.020128918528970       -1.696988493917448
S           5.141185804522920        2.991038818273593        8.345555124158331        0.431501751399165       -0.178837274017062        2.450693066965008
S           5.215592667808816        3.045689004673190       11.729537132094253       -0.135303850068766       -0.326429717133282       -2.594465106187680
S           3.411392807402650        5.963424773437383        8.314495587730969        0.182919930550183        0.208295701643635        2.753547814463241
S           3.462870479566726        5.971034660525201       11.609425328429698       -0.020741355575503       -0.242089268246527       -1.340891318377227
