# total energy = -9690.939508777754 eV 

 CRYSTAL
 PRIMVEC
        6.784369838529400        0.000000000000000        0.000000000000000
       -3.392184919264700        5.875433889412424        0.000000000000000
        0.000000000000000        0.000000000000000       20.000016987341937
 PRIMCOORD
12 1
Mo          1.638123411547035        0.998805104183056       10.198939786076327       -0.237577237293712       -0.546314928562607       -2.249345517607478
Mo         -0.057530099356762        3.918993950974443       10.038954847166030        1.522027416757450        0.167362435483578       -0.116940765979588
Mo          5.069655640564254        1.008657366062568       10.043391146603444        1.853132944188065       -1.909674356169626        1.071666615247798
Mo          3.340249211276790        3.889992126788698        9.969443550674425        1.017304985499867        0.887791005225758        0.706310893088918
S           1.680422600616299        2.901745537385345        8.772433760095717       -0.731026661706110       -0.292687829727013       -5.263063634263666
S           1.639862245536650        2.927917600911440       11.172723455857902        0.129280266892372        1.764295890974352        6.606810163976640
S          -0.001301920572014        5.924497773647684        8.863310394082818       -0.972236869389205       -0.084801447889456       -5.986957538394246
S          -0.022035633235543        5.920220906901475       11.134317138201988        0.306443752003922       -0.828739424106792        6.886740431230137
S           5.118405408475991        2.890956354031132        8.940870666950854       -0.924521030060577        0.902637847061206       -8.320627821152192
S           5.094143145059443        2.890891902517666       11.234096900728192       -0.854040118954405        1.108200721934230        7.020136264790792
S           3.332673105478104        5.926378400966924        8.806339326800751        0.906020391890839       -0.342525601442305       -4.333921044206688
S           3.485754948077697        5.817308800820823       11.390726290316351       -2.014808096938937       -0.825544312781324        3.979192210380006
