# total energy = -9512.753636596379 eV 

 CRYSTAL
 PRIMVEC
        3.631055529463300        0.000000000000000        0.000000000000000
       -1.815527764731650        3.144584864903454        0.000000000000000
        0.000000000000000        0.000000000000000       19.999933739505504
 PRIMCOORD
12 1
Mo          0.882093772194731        0.547562084526407        9.819862521330290        8.175605711014221      -10.623490103631484       -6.618314055988821
Mo          0.010612122890409        2.078975004510777        9.906484982041166       -6.656445332672341       11.651481369973101       -1.971537182740644
Mo          2.718451450076700        0.529627211949729        9.984294870982035       -5.745969474123497       -2.759906669641600        3.456740472245547
Mo          1.823610857445788        2.107950827635895       10.171596334569447        2.966625255901762        1.692015206851501       17.466341527187318
S           0.926226347310934        1.571865420321462        8.053441514684655       -0.281532579459205        3.042512942260469      -10.079245428258920
S           0.894022878925677        1.540307190503791       11.990986453067787       -3.559237031324561        2.657900677264845        4.662891012397798
S          -0.027972562482326        3.136593274788658        7.944014209720983        4.127194487523167       -0.321071278641766      -10.928226899484303
S          -0.049615832071245        3.173524377473277       12.210450717218524        2.895348073790926       -3.845281641736580        8.410664037415875
S           2.707447173189109        1.582980807508255        7.804091484893115        1.235675816490872       -2.268721102573753      -12.033967331704734
S           2.712271393565554        1.558215193269551       12.117337381643180        2.986298317636651        0.096296341036555        7.998455081424217
S           1.821383204878462        3.145828501422295        7.838196900164705       -3.586233112353887        0.612031840493629      -11.741964187055350
S           1.796307861603095        3.117840688506745       12.259320367378464       -2.557330132424108        0.066232675455516       11.378162697451588
