# total energy = -9590.708367627158 eV 

 CRYSTAL
 PRIMVEC
        4.013280256416000        0.000000000000000        0.000000000000000
       -2.006640128208000        3.475601034062666        0.000000000000000
        0.000000000000000        0.000000000000000       19.999977480556058
 PRIMCOORD
12 1
Mo          1.000979519058458        0.595238490446903       10.004067437002623       -2.267510112443958       -1.249161515704849       -6.949376388867035
Mo          0.025429749016754        2.325604004475200       10.153274374359734       -3.801546386099985       -4.803432201945100       -2.086548334935922
Mo          3.024125466305045        0.544948075553754       10.077131612038830        3.670145729483534        4.422517442057028       -3.582355115723805
Mo          2.026479779155592        2.283480213575832       10.141069587771948        2.813763334503137        1.199356654124718       -1.017308070825038
S           1.009675494718060        1.712816643451066        7.965514105523630        0.571987662203811        0.680365622390902       -7.479760240906860
S           0.971636019135647        1.760652937467417       12.072004401206994        0.079664895699854       -1.063552724267747       10.361273459518573
S           0.049120142370378        3.454904547780329        8.160760189998269       -0.532238389578298       -0.739650402670744       -6.579236612919392
S          -0.030406216534710        3.472114697503917       11.837171320283067       -0.584267256386182        1.962995202893055       11.708806711658641
S           3.015246886393776        1.743393424396674        7.940129305245748       -0.482912524731035        0.855905969351840       -7.023009473856705
S           2.977711880139594        1.741269997813005       12.150404232344105       -0.044049958804084       -0.791932523253118       10.342376614174736
S           2.012869943150034        3.496421129376901        7.996458101612699        0.494320257442040       -1.271712671603838       -7.205214123187973
S           1.992305493788133        3.483349072925703       12.076484024629204        0.082642491600734        0.798300891517421        9.510351575870782
