# total energy = -38800.86968805405 eV 

 CRYSTAL
 PRIMVEC
       12.740577282373799        0.000000000000000        0.000000000000000
       -6.370288641186900       11.033658440967770        0.000000000000000
        0.000000000000000        0.000000000000000       19.999979849788435
 PRIMCOORD
48 1
Mo          1.628238132341002        0.940054576375853        9.999991198951946       -2.048246851147112       -1.182555773014018        0.000000000000000
S           1.602610461137507        2.764204565587917        8.533055145294437       -0.166402899355257       -0.096072397851194       -2.099530611926090
S           1.602610461137507        2.764204565587917       11.466929800724911       -0.166402899355257       -0.096072397851194        2.099530611926090
Mo          0.035665972044277        3.698468549588931        9.999991198951946       -2.047893324304550       -1.183035026857317        0.000000000000000
S           0.010038300840782        5.522619812858723        8.533055145294437       -0.166417811760253       -0.096061084992232       -2.099564550502976
S           0.010038300840782        5.522619812858723       11.466929800724911       -0.166417811760253       -0.096061084992232        2.099564550502976
Mo         -1.556906188252448        6.456883796859739        9.999991198951946       -2.048176145778599       -1.182515149565928        0.000000000000000
S          -1.582533859455943        8.281033786071802        8.533055145294437       -0.166400328250948       -0.096091681133515       -2.099564550502976
S          -1.582533859455943        8.281033786071802       11.466929800724911       -0.166400328250948       -0.096091681133515        2.099564550502976
Mo         -3.149477074491444        9.215297770072816        9.999991198951946       -2.048485192516606       -1.182009927569103        0.000000000000000
S          -3.175104745694939       11.039450307400337        8.533055145294437       -0.166402642244826       -0.096072912072056       -2.099530611926090
S          -3.175104745694939       11.039450307400337       11.466929800724911       -0.166402642244826       -0.096072912072056        2.099530611926090
Mo          4.737782415456302        0.896406632664169        9.999991198951946        2.238730970575966        1.292248081724147        0.000000000000000
S           4.763408812602069        2.750149160730003        8.344932877373820        0.071420135510447        0.041234599585136        1.388139730942380
S           4.763408812602069        2.750149160730003       11.655050794587803        0.071420135510447        0.041234599585136       -1.388139730942380
Mo          3.145211529217305        3.654821879934975        9.999991198951946        2.238485173003974        1.292673856597807        0.000000000000000
S           3.170837926363072        5.508563133943081        8.344932877373820        0.071438647461476        0.041201946560404        1.388148472697033
S           3.170837926363072        5.508563133943081       11.655050794587803        0.071438647461476        0.041201946560404       -1.388148472697033
Mo          1.552638094862852        6.413237127205782        9.999991198951946        2.238179982922432        1.292460969160977        0.000000000000000
S           1.578265766066347        8.266978381213887        8.344932877373820        0.071405737326314        0.041226114940914        1.388150529580480
S           1.578265766066347        8.266978381213887       11.655050794587803        0.071405737326314        0.041226114940914       -1.388150529580480
Mo         -0.039932791376144        9.171651100418860        9.999991198951946        2.238394155911416        1.292090215919541        0.000000000000000
S          -0.014306394230378       11.025391080369237        8.344932877373820        0.071401366448987        0.041266481278574        1.388148472697033
S          -0.014306394230378       11.025391080369237       11.655050794587803        0.071401366448987        0.041266481278574       -1.388148472697033
Mo          7.998526773527901        0.940054576375853        9.999991198951946       -2.048170746459549       -1.182599996008143        0.000000000000000
S           7.972899102324406        2.764204565587917        8.533055145294437       -0.166417554649822       -0.096071112299039       -2.099565578944700
S           7.972899102324406        2.764204565587917       11.466929800724911       -0.166417554649822       -0.096071112299039        2.099565578944700
Mo          6.405954613231176        3.698468549588931        9.999991198951946       -2.048470280111610       -1.182684842450358        0.000000000000000
S           6.380328216085410        5.522619812858723        8.533055145294437       -0.166408812895169       -0.096086281814465       -2.099565578944700
S           6.380328216085410        5.522619812858723       11.466929800724911       -0.166408812895169       -0.096086281814465        2.099565578944700
Mo          4.813382452934452        6.456883796859739        9.999991198951946       -2.048247108257542       -1.182467841246632        0.000000000000000
S           4.787754781730957        8.281033786071802        8.533055145294437       -0.166422953968872       -0.096101451329892       -2.099554266085738
S           4.787754781730957        8.281033786071802       11.466929800724911       -0.166422953968872       -0.096101451329892        2.099554266085738
Mo          3.220810292637727        9.215297770072816        9.999991198951946       -2.047885868102052       -1.182347513564946        0.000000000000000
S           3.195183895491960       11.039450307400337        8.533055145294437       -0.166437609263436       -0.096075740286796       -2.099554266085738
S           3.195183895491960       11.039450307400337       11.466929800724911       -0.166437609263436       -0.096075740286796        2.099554266085738
Mo         11.108071056643203        0.896406632664169        9.999991198951946        2.237644421894754        1.292254766595352        0.000000000000000
S          11.133700001904424        2.750149160730003        8.344932877373820        0.071414736191397        0.041256196861336        1.388146158703154
S          11.133700001904424        2.750149160730003       11.655050794587803        0.071414736191397        0.041256196861336       -1.388146158703154
Mo          9.515500170404204        3.654821879934975        9.999991198951946        2.237859623325463        1.292411346847803        0.000000000000000
S           9.541126567549972        5.508563133943081        8.344932877373820        0.071425534829497        0.041237427799876        1.388142302046690
S           9.541126567549972        5.508563133943081       11.655050794587803        0.071425534829497        0.041237427799876       -1.388142302046690
Mo          7.922926736049752        6.413237127205782        9.999991198951946        2.238190781560531        1.291837476365913        0.000000000000000
S           7.948553133195519        8.266978381213887        8.344932877373820        0.071436076357166        0.041218915848847        1.388146158703154
S           7.948553133195519        8.266978381213887       11.655050794587803        0.071436076357166        0.041218915848847       -1.388146158703154
Mo          6.330355849810756        9.171651100418860        9.999991198951946        2.237947812203280        1.291729489984913        0.000000000000000
S           6.355982246956522       11.025391080369237        8.344932877373820        0.071439418792769        0.041245655333667        1.388185753709521
S           6.355982246956522       11.025391080369237       11.655050794587803        0.071439418792769        0.041245655333667       -1.388185753709521
