# total energy = -9671.303273347006 eV 

 CRYSTAL
 PRIMVEC
        8.918435848296600        0.000000000000000        0.000000000000000
       -4.459217924148300        7.723588405521063        0.000000000000000
        0.000000000000000        0.000000000000000       20.000056148469234
 PRIMCOORD
12 1
Mo          2.328033711939536        1.264248926859811       10.005590502673201        0.765822444768861        0.246546791787979        0.255190587366227
Mo         -0.065051962921060        5.127619017234736        9.938557755150233       -0.194201936260452       -0.254977185708535       -0.589599212503309
Mo          6.717582598928112        1.320168411472216       10.003713171927135       -0.106376098371682        0.138865600868774       -0.369798333295337
Mo          4.456739490826059        5.121328844430933       10.189032917793229       -0.303643562300401       -0.202152047895986        0.577919456956355
S           2.199989052934787        3.842619565686693        8.513591479555439       -0.258080508610152       -0.089344332093985        1.710127351160067
S           2.286237462336494        3.798591031590823       11.488865511844159        0.638078155591010        0.028674755033025       -1.642859549109530
S           0.040802735849542        7.726565379407224        8.327736627538448       -0.084548965446259       -0.039277732095143        2.057096077959692
S          -0.116734298661939        7.789153178503399       11.484548988893582       -0.455300921330006        0.335700347942196       -1.937246878785150
S           6.711863206018600        3.873589726013488        8.475932492342423        0.445700674948608       -0.015857285829098        2.274732601559892
S           6.744510032284874        3.823998763479035       11.806434959217475       -0.181240485215191        0.045843561170420       -2.413688191079499
S           4.382258957526179        7.729142807367381        8.202122242302359       -0.171029344449846        0.250045036311541        2.595985657276343
S           4.435261221772605        7.651223325204399       11.805835640328469       -0.095179196214059       -0.444067509491187       -2.517859310395319
