# total energy = -9680.642888457505 eV 

 CRYSTAL
 PRIMVEC
        8.376928769394899        0.000000000000000        0.000000000000000
       -4.188464384697450        7.254629737515218        0.000000000000000
        0.000000000000000        0.000000000000000       19.999984452360476
 PRIMCOORD
12 1
Mo          2.047409348992192        1.196498516147474        9.929551469851273       -0.341393801325245        0.076582141632714       -0.311202094749591
Mo         -0.013786749368670        4.831233668409013       10.183865812668456        0.241710801692162       -0.014853526706653        0.025428221621367
Mo          6.339286081654945        1.140510475024346       10.015401586651540        0.136370601246794       -0.267865874501836       -0.348641230152981
Mo          4.199950829426044        4.901897251043243        9.952565406259431       -0.104071874689471        0.237169203039788        0.021384388763320
S           2.058063964693985        3.596538032458852        8.486206642884532        0.179257906682103       -0.232616291528451        1.444522505788042
S           2.014977231568603        3.637326136329913       11.359324834518718       -0.416008276829867        0.163356654969312       -1.105643758698390
S           0.055873277198987        7.192821406283115        8.399228153779028       -0.109406144800477        0.165479615797701        1.983218480950185
S           0.064074290464225        7.193111248018536       11.481866737021811        0.101700802295211       -0.414157595947859       -1.649439519258509
S           6.337452371947323        3.554340091475902        8.407293460798202       -0.112674018377904        0.036902803044420        1.989775054049947
S           6.211537080228796        3.642426848257597       11.512130905279880        0.357205321497633        0.269215190043484       -1.724512936882384
S           4.127195527678095        7.251410483789139        8.560121311574164        0.110391906192755       -0.013861080443170        1.311561960186993
S           4.153614685631013        7.205569416484380       11.533101708761185       -0.043083480694127       -0.005351496509880       -1.636450814507567
