# total energy = -9690.71949293913 eV 

 CRYSTAL
 PRIMVEC
        7.548819292434800        0.000000000000000        0.000000000000000
       -3.774409646217400        6.537466227730848        0.000000000000000
        0.000000000000000        0.000000000000000       20.000053200316945
 PRIMCOORD
12 1
Mo          1.956156493407728        1.023227357450952        9.925093245452119       -0.328804646184006        0.509401841100949       -0.546580009416921
Mo          0.055748030474631        4.346204022106025        9.965846301284257       -1.057781109313688        0.632100338071325       -0.190036747278995
Mo          5.658120875757561        1.071108763340937       10.164183979373691       -0.094379068552930       -0.039844146374535       -0.423131521319452
Mo          3.711574784191031        4.375348503630257       10.130732141561195        0.763162637360640       -0.551834061073469       -0.284264120677662
S           1.857920688427558        3.206520274548752        8.820990102747809        0.184610688744138       -0.182719898634901       -2.428879046671564
S           1.851688383219723        3.326833356431578       11.189412528819068        0.273655744296493       -0.257708726926992        2.513148018858514
S           0.049645564958627        6.570126949281496        8.820868566757200        0.181762162279597       -0.315836767377971       -2.314825630831591
S          -0.049588193932004        6.558399103628769       11.287366007957701        0.348733789908125       -0.274333744502919        2.212502364183039
S           5.698787120167837        3.264791875312844        8.670551192832734       -0.011249095575106        0.065155639860249       -0.644564537543121
S           5.615371912104503        3.221302372487197       11.217406570283131       -0.009694863019989        0.182186908711533        1.338575010504761
S           3.836792333968152        6.498479595613139        8.693282952368042       -0.152974021546521        0.071211618950943       -1.455157621654030
S           3.802257995469121        6.514523101255350       11.103470730938556       -0.097042475507184        0.162220998195788        2.223213841847021
