# total energy = -9694.71143291546 eV 

 CRYSTAL
 PRIMVEC
        5.956207443844399        0.000000000000000        0.000000000000000
       -2.978103721922200        5.158224551555346        0.000000000000000
        0.000000000000000        0.000000000000000       19.999943953578928
 PRIMCOORD
12 1
Mo          1.455169379296047        0.883150106907840       10.151832037398465       -2.704583961102762        0.321408864637609       -3.674802256498545
Mo         -0.037798688059381        3.397184860154069       10.186865258341669        1.149744111146941       -1.872720645259877       -4.094448131705552
Mo          4.444025246895874        0.811190782295778        9.803256313541615       -0.527674165208000        4.237051861129967       11.965184377884581
Mo          2.996090872781865        3.415705687200703       10.083636440270169       -0.309120785811017        0.706056096651842        1.243985111398449
S           1.559739535283901        2.553980654089116        8.572784860064598       -1.462244870683282        0.231233294520349       -2.137820525745508
S           1.547448305602783        2.555510803781440       11.689853453479877       -0.673145447268848        0.820346054088293        2.018700748863583
S           0.048214903637176        5.129802125254065        8.569221261150945       -4.670741365186121       -2.391051417407002       -5.473361454833142
S          -0.065929855816658        5.193892108591319       11.358203484316197        3.617469972831370       -0.008952842316255        7.811312626266474
S           4.464989905856718        2.547785602726774        8.455522026013911        0.364176099501663        2.037014724860448       -2.212913997982997
S           4.407407674772608        2.575566545486352       11.666729073699894        0.430965676150625       -1.375226873768570        1.379385120768391
S           2.913683169071812        5.167753292224008        8.639721314939266        5.161899678548287       -2.408996954156310       -6.872145814727456
S           2.908695440958336        5.193874239968988       11.717937567198346       -0.376744942918857       -0.296162162980496        0.046923939201289
