# total energy = -9680.641377544736 eV 

 CRYSTAL
 PRIMVEC
        8.185842864781000        0.000000000000000        0.000000000000000
       -4.092921432390500        7.089144566971965        0.000000000000000
        0.000000000000000        0.000000000000000       20.000036021847581
 PRIMCOORD
12 1
Mo          2.095764866354112        1.202844122236649       10.146382518514649       -0.177463532984474       -0.060113190088376        0.078524610938572
Mo         -0.051720610972546        4.734334610240426        9.924987393809495       -0.292958567010807       -0.048783618948381       -0.250815853383542
Mo          6.119311280465594        1.228926673356701       10.160898473666764        0.348959789976933        0.293699302162386       -0.406764899726634
Mo          4.116171681879337        4.716441994906587        9.854085715836193        0.143271445213604        0.067558336837515       -0.053639663657812
S           2.057725254561475        3.582462912938481        8.328877371494464        0.195655638637067        0.197606849697578        2.654828978946236
S           2.094523073991525        3.509618734453368       11.814064639333607        0.023053549681074       -0.449813413402151       -2.948152899879430
S          -0.049645499806324        7.027515811795888        8.289830901029458       -0.103188186138281       -0.243469951260750        2.977912146710219
S          -0.067952318789120        7.124343691290524       11.778899076970795       -0.034473623692765        0.344699727246454       -2.774175784338694
S           6.205751325364822        3.478796580314608        8.421048324983325       -0.158373083486128        0.300285957182570        1.985647403191409
S           6.133441682418778        3.609888760872643       11.505340487194111        0.022935793103697       -0.274193876428480       -1.863229670811635
S           4.107103405153733        7.117856410820185        8.303949024218346        0.045101026245824       -0.410756024946335        2.525218582260520
S           4.088173643528926        7.120510261076947       11.552093928716307       -0.012520506656175        0.283279644837538       -1.925352950249210
