# total energy = -9691.028841750402 eV 

 CRYSTAL
 PRIMVEC
        6.656943956970200        0.000000000000000        0.000000000000000
       -3.328471978485100        5.765079890335118        0.000000000000000
        0.000000000000000        0.000000000000000       19.999962657666302
 PRIMCOORD
12 1
Mo          1.617265258376564        0.986766125380045        9.855196791935423        0.406505989522663       -0.436597165919814        0.573416167758193
Mo          0.037850051950541        3.811095089810274       10.105189002517898       -0.137902722304850        0.297468283969744       -0.271157659349342
Mo          5.022095046825695        0.975670331192568        9.862528084315235       -0.157697397273580       -0.185723719799739        0.199889476103589
Mo          3.366417890428622        3.881601446036128       10.041555275233222       -0.264904219447675       -0.313926436875981       -0.049360060534580
S           1.694502450637311        2.871726405403856        8.193549688197738       -0.085926048914450        0.069861789188434        3.587846223197693
S           1.691769109448579        2.917474921359342       12.030412476676654       -0.164876948947544        0.072893892500676       -4.281654864471034
S          -0.008417039939193        5.723916011682796        8.073019060912836        0.002584474051951        0.255135051513141        3.992199427081977
S           0.006088440943045        5.773644714430155       11.975085949755877        0.017047192903554       -0.247835172157490       -4.239708583213017
S           5.019903580875060        2.824057361116784        7.939180536963554       -0.037526552949915        0.004241550779451        4.205793146265854
S           4.967784369552754        2.857820715172141       11.810465716949565        0.311860554563265        0.127801367693523       -3.771237951388677
S           3.318333452838635        5.747468945096952        7.921199465641383        0.116137038772426        0.251924256451385        4.336762885800025
S           3.334558422344958        5.730081007481346       11.944683686704396       -0.005301102865413        0.104756816877533       -4.282788464361110
