# total energy = -9586.868876912571 eV 

 CRYSTAL
 PRIMVEC
        4.204419078754800        0.000000000000000        0.000000000000000
       -2.102209539377400        3.641132032678625        0.000000000000000
        0.000000000000000        0.000000000000000       20.000118839462914
 PRIMCOORD
12 1
Mo          1.033748507289692        0.583108359381056        9.810248397769623       -2.456426629575286        5.864321005037731        8.552850990831715
Mo         -0.016718031582853        2.444376515937978       10.144252074246891        6.178208361128207       -0.508622796495158       -9.530758944996474
Mo          3.144781860987675        0.582392346811944       10.140995751670395        1.954880797692141       -3.630698047393531       -6.752223853300953
Mo          2.117649848002219        2.394891764706758       10.002825507043369       -5.131188351791674        1.306728026974624       -4.275452846655558
S           1.013769528269357        1.812317366548704        8.274441379005756       -1.257053006162125        4.012066350081805      -15.830634018935639
S           1.070335782554924        1.837865939522665       11.659121506440469        1.852134841495101       -4.021594862652966       18.123949534003174
S          -0.028352079615675        3.662219717010028        8.403341300006035        7.487476896271088       -3.551790084802406      -21.535194572601810
S           0.048651014927903        3.621273300043943       11.760947491225014       -3.126938494699870        2.155611796236243       17.558025307092553
S           3.094602119282736        1.851547539646841        8.230196174830478        2.095785027167950       -1.856209270494432      -12.260146863594247
S           3.181702546685852        1.809732489699085       11.521880017987938       -3.384967838334262        0.442569841230879       30.531357425368139
S           2.130900074728915        3.615093224440082        8.341299210312298       -6.650532564091687       -0.989402590201428      -19.837861807817319
S           2.148979076767560        3.608954772585099       11.730354456240363        2.438620446679556        0.777021146699500       15.256089907716850
