# total energy = -9377.656234528862 eV 

 CRYSTAL
 PRIMVEC
        4.013280256416000        0.000000000000000        0.000000000000000
       -2.006640128208000        3.475601034062666        0.000000000000000
        0.000000000000000        0.000000000000000       19.999977480556058
 PRIMCOORD
12 1
Mo          0.955850583903086        0.610205216507155        9.898965245679449       -4.176228274920866      -21.381335834062376        9.915681799392692
Mo         -0.001649056857361        2.297660738033852        9.852147923520201        0.133309701566285       14.950274019385319       21.098028935519157
Mo          3.006859933313919        0.586030420226582       10.009039088584272       12.310673948374927      -18.350770556417917        2.108648519139018
Mo          2.036248504627734        2.302366309134500       10.078653447912064       -0.415103505223339       26.617841503471062       -8.221091888685613
S           1.030058945140397        1.750625756746762        8.798669882771515       14.444685383085851        6.577545083394144      -82.422233322069616
S           0.962940444804070        1.758142630667029       11.022906855858185      -11.454444791211378       -3.467623185456544       88.804001924924137
S          -0.023216424955341        3.461746789289492        8.769423905558934        6.433618777912899        9.159916743351465      -75.340979850957567
S          -0.047066145535144        3.492856533853152       11.088815352197201       -5.566656288698738       -6.217423872499060       71.979851548891816
S           2.977038853040594        1.746595219385243        8.914781705822117      -14.784867165839579       -6.790990449859360      -93.115368213685812
S           3.018695096790089        1.724075901210442       11.239830272309829       10.392987002735046        0.800515640769661       70.194802732372565
S           2.030890775485419        3.492975326948742        8.686546056311714       -8.958925291940805       -7.632480751568462      -62.339186893527504
S           2.026187211024900        3.450723111081169       11.349052898472266        1.640950504159695        5.734531659492069       57.337845480018025
