# total energy = -9432.030437987472 eV 

 CRYSTAL
 PRIMVEC
        3.631055529463300        0.000000000000000        0.000000000000000
       -1.815527764731650        3.144584864903454        0.000000000000000
        0.000000000000000        0.000000000000000       19.999933739505504
 PRIMCOORD
12 1
Mo          0.904991934574633        0.512718112560124       10.141663002101209        2.045745423764358        1.074957114543149      -26.753571128413490
Mo          0.033672593452478        2.080539989443976       10.152876790892853       -6.569187965946409       -3.279823556037281      -13.230378271622010
Mo          2.715967081883441        0.500731998257366       10.146920407402320        3.141034316966501        5.860850014219849      -20.460625437698972
Mo          1.846131026945072        2.069119230487155       10.139188800863433        1.276274324869827       -2.801198604852838      -20.460719025895841
S           0.924165723297964        1.550999559721401        8.431946011025884       -2.824142111269464        2.857796838239639      -26.187977288406650
S           0.934446330818533        1.548320566951763       11.691968667110931       -4.662775569814300        4.641447488235359       42.619998775994418
S          -0.040124252917228        3.169401677025124        8.433628279052686        3.573905952741789       -2.991869386454566      -26.071883958407483
S          -0.036786949780099        3.173007315165881       11.623600248757771        5.770082575890532       -4.921947769314282       47.406355245778123
S           2.736966565326986        1.576014627474980        8.376560794823876        2.300023269100698       -1.246273908454802      -24.656864103240139
S           2.704518363799044        1.566220218289806       11.810362137493504        5.048432217380459       -1.316804698984579       36.218563796276200
S           1.807949025630554        3.115899163115141        8.377798984759423       -3.004749333493214        1.016363704212144      -24.888926321789885
S           1.851320531507781        3.119097759931046       11.507919903066812       -6.094642585969916        1.106502764648208       56.466027717425732
