# total energy = -9661.676530795545 eV 

 CRYSTAL
 PRIMVEC
        8.918435848296600        0.000000000000000        0.000000000000000
       -4.459217924148300        7.723588405521063        0.000000000000000
        0.000000000000000        0.000000000000000       20.000056148469234
 PRIMCOORD
12 1
Mo          2.226143257903502        1.259391946696829        9.911519733188953       -0.080011994781642       -0.468716172285901       -0.464531700022122
Mo         -0.013495377125642        5.177310758094276        9.873123191331283       -0.304695658183865        0.310756008151885       -0.234559532165603
Mo          6.758157914663522        1.303394617328740        9.827158464812745        0.122868704075668       -0.058893201093498       -0.369246317200079
Mo          4.443046124424583        5.220921017548861       10.167377171866395        0.277491574815898        0.491720099653801        1.093604048548100
S           2.213574506262498        3.812619731180193        7.803972051508929       -0.322469959386157       -0.127871301730743        3.073110883317030
S           2.265659955303719        3.925841949805073       12.222628037575593        0.357026629748120        0.231933663334268       -3.064957397330613
S          -0.001481352194402        7.675947013063047        8.123394749851521       -0.000072762251960       -0.147469287219793        2.989565419882785
S           0.036724335136116        7.678286318786055       12.172990699174727       -0.137513714222817       -0.082588241299803       -2.915358207300796
S           6.809717175989696        3.785199108321021        7.747068863422458        0.396790300557767       -0.313531772364467        3.007702503903154
S           6.683495445272338        3.935768168904227       11.867609186231695       -0.293999092924879        0.325927837572060       -3.111628082757412
S           4.530159622103575        7.690532223049352        8.032036968552324       -0.077167582083996        0.373720810029974        3.223173900564289
S           4.439373512542256        7.654208325682824       12.088555407780980        0.061753811748294       -0.534988442747784       -3.226875262328305
