# total energy = -9623.525343063384 eV 

 CRYSTAL
 PRIMVEC
        4.554734417592800        0.000000000000000        0.000000000000000
       -2.277367208796400        3.944513873995805        0.000000000000000
        0.000000000000000        0.000000000000000       19.999888929728577
 PRIMCOORD
12 1
Mo          1.155000029502343        0.660758510274280       10.121550863606158       -0.214852788964259        0.647249027552714       -1.387740952663971
Mo         -0.039706808232249        2.635643529031133        9.804314522367704        4.129127186632648        0.945600228742354       11.605065738093808
Mo          3.397956219773829        0.671472612044783       10.047673526826244       -0.681087074260160       -5.065088602428962        1.278058671260649
Mo          2.296093999354333        2.599379644545143        9.926820481157044       -3.610755276816571        0.992300481868713        6.243172196606964
S           1.113663081822037        1.988074618683319        8.402116758239671        2.579307932062070       -3.367894420166751      -17.885434614967771
S           1.157619457265900        1.999676893665253       11.608235762866443       -1.284786737017857        3.090579480216918       13.756865357970291
S          -0.037887191832420        3.974620213022651        8.407879863698252       -0.129475927930328        3.740408868054688      -17.873115939999895
S          -0.008488203060626        3.963961679012043       11.707635553955338        1.335525166572783       -2.321166231169352       13.050816203300087
S           3.428527597184712        1.954772677989089        8.379246981255497       -2.765074846414209       -2.520976003039345      -19.027615822788196
S           3.429040915753575        1.946329111325755       11.522184076461745        1.224679717579824        3.551248867345246       17.123362382944809
S           2.261242993484680        3.953696674055114        8.574782640749639        1.259367000040712        2.680747510159432      -20.956431536321499
S           2.304773956733939        3.972153824335525       11.638132584110082       -1.841974351484654       -2.373009721356518       14.072998573675154
