# total energy = -9683.05915811916 eV 

 CRYSTAL
 PRIMVEC
        5.446609753057400        0.000000000000000        0.000000000000000
       -2.723304876528700        4.716900211391535        0.000000000000000
        0.000000000000000        0.000000000000000       20.000032712373070
 PRIMCOORD
12 1
Mo          1.374669835574157        0.742919204299955        9.916451201389275        2.074664176596359        0.927797645392656        5.093610633866001
Mo          0.044301089748443        3.153648593710444       10.070932849154268       -1.742990949334198        0.687936239030348       -3.167631876827847
Mo          4.130840644674756        0.781219764083455        9.845342443097259       -7.594667520488033        2.132923857587986        6.933996814218650
Mo          2.711180178557419        3.142667139126330       10.154968591034189        0.946394699974002       -4.094406222705306       -6.834129980627435
S           1.382324500921104        2.351266572092460        8.612141759927065        0.469585205542526        1.788851222682629       -9.085377086982250
S           1.348358897840063        2.339165294543117       11.683230643000664       -0.309429061217731       -1.257999429658467        3.740885807904108
S          -0.050639854179051        4.719356632390164        8.265321803308456        0.988877056480558       -1.096757250873322       -2.676032361966164
S          -0.013925891816617        4.750632699575145       11.512824197639684        1.380259553344066        0.926137226229555        5.293462057625808
S           4.095283542223871        2.355246409839019        8.409728857013217       -0.198274822597197        2.485185973940095       -4.191321942770029
S           4.114072711888993        2.368087336992827       11.505144477887875        0.827520463553638       -2.452625508964060        7.271110498199802
S           2.687629037985199        4.695933487147141        8.578169620914320        2.991902553700159       -4.015832503674421      -12.188052841644268
S           2.691718897248769        4.706085967726839       11.425535740415235        0.166158901556282        3.968789008122739        9.809479764782765
