# total energy = -9666.459293808535 eV 

 CRYSTAL
 PRIMVEC
        4.936959144545499        0.000000000000000        0.000000000000000
       -2.468479572272750        4.275530043155016        0.000000000000000
        0.000000000000000        0.000000000000000       19.999922649061634
 PRIMCOORD
12 1
Mo          1.186459401839549        0.717321403257712       10.167596759675689        2.070172714478021       -2.902093108836577       -6.428259568090091
Mo          0.041394921339271        2.834548181097996       10.177106824075825       -6.214919359791135        2.456975046124511       -8.381007634757468
Mo          3.679425304077415        0.704203902810654       10.130202256331243       -1.372584549869653        1.535156760914125       -4.960526418147661
Mo          2.433603411787937        2.856771902687167       10.148322377479468        3.974498402352507       -0.177468160972231       -5.976617071082131
S           1.277410531679938        2.100273260137915        8.248077422521531       -0.548226287506321        0.279276949648444       -2.444903197170352
S           1.187977023080582        2.154316670805511       11.602701665567043        2.248923856500713       -1.231663608215832       15.398504660974515
S           0.001384323344131        4.298658709355382        8.185153903440641        0.164797501824379       -0.188278883262561       -2.122242718954857
S          -0.029267281200695        4.255981166030359       11.777308087024009       -0.150015708927963        0.722218058341621        6.991391318610116
S           3.720401571281228        2.151650712867457        8.314544197180462        0.175317946438162       -0.198586440439513       -2.266877106562949
S           3.690912126919029        2.128983652347105       11.860389703987995       -0.418323813371040        0.162408945920815        4.526003362074355
S           2.473580932156808        4.280108085369753        8.282013585985222       -0.384729764462569        0.191230253899484       -2.287863745489583
S           2.406809547118659        4.301432786698703       11.752169091059985        0.455089062334899       -0.649175813122284        7.952398118596107
