# total energy = -9513.115241220383 eV 

 CRYSTAL
 PRIMVEC
        3.631055529463300        0.000000000000000        0.000000000000000
       -1.815527764731650        3.144584864903454        0.000000000000000
        0.000000000000000        0.000000000000000       19.999933739505504
 PRIMCOORD
12 1
Mo          0.918800112542076        0.542468802935229        9.973149346034347        0.136817973396655       -8.899624827924676       14.177113642917027
Mo         -0.024559007179078        2.087751991936596        9.913205339615097        0.935622030027454        5.874447042250429        9.538617011097728
Mo          2.746479204603075        0.495866746953438        9.819403555911364       -3.383465284975766       -2.916265035790770       -2.518149330961434
Mo          1.806958473682117        2.069064038443107        9.809308132222798        2.816401287524727        6.822967274157128       -1.047890585255743
S           0.935127153730307        1.577056740411936        7.990343210326959       -3.305313484162077       -0.978617836064625       -9.323399639542375
S           0.902053321334638        1.584585007841172       12.193886568104219       -0.428278357926292        2.241124411577719        8.301908382005713
S           0.010481767996902        3.171115172129478        7.730671905192921       -3.177472778572618       -2.148932324350485      -11.996524853865740
S           0.006530453369740        3.166056385565830       12.305993228943082       -1.289967769312015       -3.166822493191203       12.048717757128573
S           2.725310150866304        1.591228387037878        7.945342812939215        2.791649780557631        2.118340553944266      -10.151529197706944
S           2.706158511581703        1.541235651402675       11.993206480418500        0.351862823852837        4.231225738764547        2.562866491333844
S           1.785306126454374        3.166079987426771        7.668943234980938        3.393640173170346        0.265590190077461      -14.278620583947298
S           1.821683493170749        3.170860635136862       11.984209087922043        1.158503349308688       -3.443432950560222        2.686891163907082
