# total energy = -9617.819016966203 eV 

 CRYSTAL
 PRIMVEC
        5.701408598450900        0.000000000000000        0.000000000000000
       -2.850704299225450        4.937562381473441        0.000000000000000
        0.000000000000000        0.000000000000000       19.999982625323110
 PRIMCOORD
12 1
Mo          1.480249872725489        0.773266654404680        9.821950575653430       -3.620299730234451        7.695874927866243        8.809301162199185
Mo          0.005553171974891        3.244502301543033       10.057077236394404        0.947235193972791        3.822473889627499       -9.080684564506907
Mo          4.342654602676681        0.777296410002065        9.866497961596565      -10.618955961181609        9.119756608257285        6.113112627998371
Mo          2.846702480530197        3.291419763040546        9.946647793532728        2.231790788713221       -5.375818899537752       -1.492257885509423
S           1.423980390703938        2.477376634339745        8.854366232832907       -1.741820839762925        1.813656722840225      -25.341106950929831
S           1.446311667902350        2.430291551429439       10.811003002410558        2.281071916345498       -5.691289027441182       29.683019244441006
S          -0.013035700619498        4.952230965515535        9.086012753765386        8.897625280103144       -9.573815943316214      -30.928670945652897
S           0.052167888675826        4.896132525751938       11.051678273999546        0.027178115214441        4.857426935108060       23.936570259363780
S           4.223020805773665        2.460166932485321        8.836381709549954        2.942966725376653        1.405049369765374      -23.195799883655798
S           4.322920887235722        2.479113853539693       10.879065848118005       -7.554220964373773       -6.580051395875085       28.155181646164852
S           2.866900860771929        4.941904004121161        9.212664984653095        4.018743507973684       -4.948395948015244      -35.757757112177742
S           2.876303053691635        4.895346871647071       11.010156055458747        2.188685710742893        3.455132760720791       29.099091888044548
