# total energy = -9693.12210139147 eV 

 CRYSTAL
 PRIMVEC
        6.083633325403599        0.000000000000000        0.000000000000000
       -3.041816662701800        5.268578550632652        0.000000000000000
        0.000000000000000        0.000000000000000       20.000011477230910
 PRIMCOORD
12 1
Mo          1.546725446093915        0.913225757379653       10.138809916567865       -2.276087830641452       -5.444801885273185       -5.574936273017186
Mo         -0.002011249177378        3.546194884264366       10.015035354745866        1.695411892754837       -2.710161714791882        0.169923769596743
Mo          4.545810668318080        0.926935225078450        9.860777531420267        2.624862501108098       -4.910130459686767        7.153988469366391
Mo          3.090971203244395        3.459051703784620       10.010501222828442       -2.739160171857477        5.786686253300690       -1.511399499983529
S           1.568577248635432        2.602418337051201        8.525334845627620       -0.692177789809798       -0.068156889920777       -3.220948609784380
S           1.608268089177030        2.581327597038692       11.272223048347179       -1.673570875866143        4.131484375063637       10.288878104143519
S          -0.004867515023655        5.241027600391896        8.720739322949587       -2.378561506892111        0.912392102590745       -8.353572409112072
S          -0.002325164656969        5.231189756941387       11.511675464398397        1.478256936991814        0.694345744963604        3.948001886890526
S           4.510113733054609        2.625572037124355        8.669474978369740        2.025296402748850        2.327686037477487       -9.842799219750976
S           4.551564568717247        2.592552508887394       11.300476658237018        1.306581474028980       -0.534312242314374        8.183382273108860
S           3.041698031851954        5.293592017413381        8.491757448214720        1.389907622265621       -0.384673457278190       -2.304401859739847
S           3.038603287579321        5.244686905837127       11.594432345250528       -0.760758654831219        0.199642135869011        1.063883111171523
