# total energy = -38802.40560959394 eV 

 CRYSTAL
 PRIMVEC
       12.740577282373799        0.000000000000000        0.000000000000000
       -6.370288641186900       11.033658440967770        0.000000000000000
        0.000000000000000        0.000000000000000       19.999979849788435
 PRIMCOORD
48 1
Mo          1.590992328713710        0.959048228988416        9.999991198951946        0.170685587803661       -2.394529350206519        0.000000000000000
S           1.593005339924326        2.740328723760749        8.520347693512999       -0.050670552401153        0.372208486475102       -1.866585219046017
S           1.593006613982054        2.740328723760749       11.479639800621808       -0.050670552401153        0.372208486475102        1.866585219046017
Mo          0.028448435013812        3.683758279058702        9.999991198951946       -1.192955632835683        0.124213648739989        0.000000000000000
S          -0.022939409396914        5.541661879664959        8.504595243761072        0.413993302382479       -0.405185727459713       -1.521282824949407
S          -0.022938135339186        5.541661879664959       11.495389702258278        0.413993302382479       -0.405185727459713        1.521282824949407
Mo         -1.562778320321894        6.401797362863938        9.999991198951946       -1.946033627763009        1.722667912429857        0.000000000000000
S          -1.619370690552470        8.318544593706566        8.427313450081648        0.350829239920401       -0.593995543762195        0.135071422239183
S          -1.619370690552470        8.318544593706566       11.572670221879973        0.350829239920401       -0.593995543762195       -0.135071422239183
Mo         -3.183950528502091        9.151034298260523        9.999991198951946       -0.931523689758044        1.490497193278249        0.000000000000000
S          -3.192668905536419       11.053650954839270        8.360988552865066        0.093795684985095       -0.323819532038235        1.198569124874706
S          -3.192668905536419       11.053650954839270       11.639000215327467        0.093795684985095       -0.323819532038235       -1.198569124874706
Mo          4.792416558958577        0.874198532403263        9.999991198951946       -0.764718669688775        1.467820053268092        0.000000000000000
S           4.760660670082260        2.791938254216189        8.380634523034487        0.204584055462381       -0.508104461866355        0.919468038761034
S           4.760659396024533        2.791938254216189       11.619350422984862        0.204584055462381       -0.508104461866355       -0.919468038761034
Mo          3.165228250185643        3.649244055200752        9.999991198951946        1.035924151578274        1.246670372739334        0.000000000000000
S           3.193424421769264        5.510334074185331        8.355009399946448       -0.177631683206318        0.024622437530756        1.277889749707512
S           3.193424421769264        5.510334074185331       11.644980642303814       -0.177631683206318        0.024622437530756       -1.277889749707512
Mo          1.554717357075336        6.449989870492245        9.999991198951946        1.598402584493246       -0.518784829168190        0.000000000000000
S           1.616421246911601        8.233660497562751        8.408155444022142       -0.340339648558333        0.551902966668965        0.432446632232921
S           1.616421246911601        8.233660497562751       11.591830776054934       -0.340339648558333        0.551902966668965       -0.432446632232921
Mo         -0.022289639955513        9.236733791350408        9.999991198951946        0.995620805974055       -2.134823132341444        0.000000000000000
S           0.015047895828212       10.994830257642008        8.490225146644283       -0.240257613536409        0.639610790869927       -1.246666516082870
S           0.015047895828212       10.994830257642008       11.509759799375066       -0.240257613536409        0.639610790869927        1.246666516082870
Mo          7.930721421231108        0.954452702762664        9.999991198951946        0.701035501266600       -1.438695354980897        0.000000000000000
S           7.984266245375740        2.713206582842032        8.459745863611660       -0.379487025664983        0.788131659752322       -0.616257193315930
S           7.984266245375740        2.713206582842032       11.540240356465420       -0.379487025664983        0.788131659752322        0.616257193315930
Mo          6.368687150622505        3.717473668721048        9.999991198951946       -0.098586937865926       -2.141029263923816        0.000000000000000
S           6.370738383564967        5.498717215819262        8.520331130762530        0.014143387696357        0.353354321462802       -1.829361285073336
S           6.370738383564967        5.498717215819262       11.479649993083633        0.014143387696357        0.353354321462802        1.829361285073336
Mo          4.806153449384433        6.442200281541803        9.999991198951946       -1.425277790031123       -0.259322351991660        0.000000000000000
S           4.754788538012814        8.300054193896658        8.504628369262004        0.420031026632576       -0.436523889446992       -1.489662355708941
S           4.754788538012814        8.300054193896658       11.495360398930529        0.420031026632576       -0.436523889446992        1.489662355708941
Mo          3.214947078972378        9.160231721000669        9.999991198951946       -1.920247765532184        1.458096650990267        0.000000000000000
S           3.158340694106792       11.076961115035100        8.427366960506234        0.353215224719656       -0.479194193678576        0.344526949036853
S           3.158340694106792       11.076961115035100       11.572620533628571        0.353215224719656       -0.479194193678576       -0.344526949036853
Mo         11.181530677137912        0.898891045234232        9.999991198951946       -0.443303891511253        0.609557923926988        0.000000000000000
S          11.119610197487848        2.799344351790432        8.461046676552190        0.703222739702727       -0.711177736436449       -0.463172100063236
S          11.119610197487848        2.799344351790432       11.538940817582617        0.703222739702727       -0.711177736436449        0.463172100063236
Mo          9.570153424772405        3.632616327789526        9.999991198951946       -0.777749797660825        1.846129513159305        0.000000000000000
S           9.538363136337425        5.550370064237462        8.380672744766335        0.191512561152672       -0.604018736802512        0.865365319217074
S           9.538363136337425        5.550370064237462       11.619309653137559        0.191512561152672       -0.604018736802512       -0.865365319217074
Mo          7.942963841941741        6.407636369432450        9.999991198951946        1.049760292309642        1.199089516386957        0.000000000000000
S           7.971125613966699        8.268777350726157        8.354999207484623       -0.300214480482765       -0.110464668444715        1.255393101219885
S           7.971125613966699        8.268776076668429       11.644989560707911       -0.300214480482765       -0.110464668444715       -1.255393101219885
Mo          6.332435112023239        9.208378362550759        9.999991198951946        1.832061715929648       -0.500093415058685        0.000000000000000
S           6.394135179686319       10.992091033526297        8.408104481713014       -0.198272765713749        0.553921540662386        0.289922092821239
S           6.394135179686319       10.992091033526297       11.591880464306337       -0.198272765713749        0.553921540662386       -0.289922092821239
