# total energy = -9665.380248480387 eV 

 CRYSTAL
 PRIMVEC
        5.956207443844399        0.000000000000000        0.000000000000000
       -2.978103721922200        5.158224551555346        0.000000000000000
        0.000000000000000        0.000000000000000       19.999943953578928
 PRIMCOORD
12 1
Mo          1.525112527688367        0.869711116052294        9.878851902798143       -4.063843248667354        0.984651189437395        1.958391640626820
Mo         -0.016513585138059        3.433597538741268        9.926459273276048        3.284193147811347        0.982419985117575        6.936697759295824
Mo          4.442130577307988        0.854566267384831       10.001922039106578       -1.621416796278384       -1.675013265383796        2.940989803273046
Mo          2.978710659460727        3.426366107283696       10.186616884491261       -0.054613597970266        2.598998220195833       -9.108757166910637
S           1.443494617085367        2.575790498886241        8.732502349533519        3.738004371304405        2.540679403805086      -13.279658113702132
S           1.501231113942273        2.618693656724997       11.088435532390342       -5.642275037546667       -4.263689787328974       16.781168453958433
S           0.016329538328044        5.126400535182885        8.940436529501849        1.271522924105794        0.569041176665077      -20.520975683604689
S          -0.084073654932097        5.197078679573776       11.217867493869548        0.470110225042534       -1.480988221099840       13.657874242506908
S           4.471298720781238        2.573990532996711        9.065824821747428       -5.003995821598651        0.610006067408141      -20.733655889427386
S           4.457279595320661        2.552219999168715       11.220449509796454        3.525454520470201       -0.521785822118288       16.267393421537385
S           2.909754454641852        5.208004746508764        8.741626068096000        0.870495186535472       -3.632663913748606      -12.797368053324437
S           2.955165771435210        5.192581147332930       11.019861716089361        3.226364383901999        3.288344967050395       17.897899585770862
