# total energy = -9679.233364124762 eV 

 CRYSTAL
 PRIMVEC
        5.446609753057400        0.000000000000000        0.000000000000000
       -2.723304876528700        4.716900211391535        0.000000000000000
        0.000000000000000        0.000000000000000       20.000032712373070
 PRIMCOORD
12 1
Mo          1.379789648742031        0.790785644792750       10.048106107679203       -0.249929850838474       -4.515481374797987       -4.516974672180968
Mo          0.013605631163137        3.169492236821113        9.923635824314534        1.545605728828102       -0.581891298893735        8.002685062234276
Mo          4.085090756732000        0.749228012376922       10.123412568107902        0.381448778253163        2.445853477323158       -3.633240098224374
Mo          2.745476390850471        3.183776515559481       10.001546853527143        1.547924607804877        0.213474419943914       -1.105825792883506
S           1.421515581399229        2.329107040312146        8.494658932214593       -0.231661383387888       -0.048924772574975       -7.535366799361472
S           1.397027623949483        2.367569364405311       11.263089515208348       -1.534000021085262        1.520407363932008       15.339880654502224
S           0.048441057821742        4.689382849597139        8.587407071055505       -0.249368321657270        3.400713024015463      -10.268372775943632
S           0.036029323516475        4.705702526400224       11.598744466494164       -1.735974662783889       -1.042947380110218        6.370712854323499
S           4.112208337370522        2.374865098169532        8.712889334512294       -1.789463659729162       -3.811207310543088      -13.853807560409406
S           4.118507886210908        2.363108046356582       11.584985785596965        0.094435375737309        1.033035258776073        5.399859496163259
S           2.696102328778030        4.726811951820149        8.449424838215451        0.316562847234985        1.044662049574252       -4.964933548044647
S           2.716983541249302        4.683016852117765       11.471207741838521        1.904420818733939        0.342306800465563       10.765382922714313
