# total energy = -9687.322563201067 eV 

 CRYSTAL
 PRIMVEC
        7.803618137828300        0.000000000000000        0.000000000000000
       -3.901809068914150        6.758128397812754        0.000000000000000
        0.000000000000000        0.000000000000000       20.000017783330357
 PRIMCOORD
12 1
Mo          1.870503076421216        1.163612327406040        9.954012805637189        0.499604905239872        0.000183576847701        0.161780053806701
Mo         -0.043708845551790        4.473424097510073        9.936055899940234        1.413552783048321        1.142272996244275        0.075595866019574
Mo          5.886443182048360        1.188789140604115        9.808276335104177       -0.508537435832081       -1.215539955980266        0.234928485634022
Mo          3.861121003943513        4.513132028042599       10.021144211029672       -0.385068636010567        0.264407482095072        0.586040547028473
S           1.878692973656867        3.373486953023271        8.981664817703882       -0.019580501979745        0.012258768237463       -1.746887457915308
S           1.973886189872979        3.437728678619315       11.315588878687286        0.059429019231607        0.066161712976572        1.390014065984036
S           0.043129817085963        6.787674456806199        8.859946323075476       -0.063605263961595       -0.089695802053100       -1.008804400431660
S          -0.118224814788099        6.823123952920912       11.332160642164778        0.037588773674206       -0.061515727489231        0.393873382718592
S           5.877350406194163        3.360742083880570        8.930626033635228       -0.382683422542605        0.273071332286934       -2.883392181641126
S           5.876399145143162        3.438866446143810       11.000282127104706       -0.638666681367464       -0.079595475883496        2.882620336127402
S           3.856942166430706        6.742756830804860        8.873706442937909        0.099245911900461       -0.061599288379291       -2.208776576928083
S           3.859346461178971        6.809362272334852       11.123141510704862       -0.111279451400409       -0.250409618902634        2.123008393818239
