# total energy = -9538.984911301357 eV 

 CRYSTAL
 PRIMVEC
        4.204419078754800        0.000000000000000        0.000000000000000
       -2.102209539377400        3.641132032678625        0.000000000000000
        0.000000000000000        0.000000000000000       20.000118839462914
 PRIMCOORD
12 1
Mo          1.074662129786963        0.623355161012436       10.180367193249580       -6.077154191566844       14.780273630880149      -24.173120854706692
Mo         -0.041950852684000        2.461803833019417        9.968961854457353        1.282807243809941      -12.209228713848084        1.209272889225758
Mo          3.139771034329615        0.598061375834647       10.098684159829439        5.599989627630221        9.489180845875584      -18.778392254303554
Mo          2.096911130454353        2.457841588479598        9.845884633439242        5.061627381807456       -6.115827971259677       15.168872650218148
S           1.053164935037290        1.840039624186381        8.634150032846714       -5.404914030125386       -7.748061403368302      -41.483703340159394
S           1.053119527311239        1.793533703872459       11.642938276964433        0.113780621672731        6.318519179729374       25.478507279452597
S           0.008982320919852        3.647075819930261        8.516334221863755       -1.079561191030246        2.987170436218447      -30.128428870381775
S          -0.005811768492563        3.615233231595404       11.316561416696027        5.338471552558212       -7.951456065977090       57.358360835524721
S           3.195294172241743        1.794548650638070        8.444724556114403        0.448492894228770       -2.898940163621786      -29.577414220251754
S           3.130526357659249        1.786921834429209       11.495497288268753       -1.069432068492375        4.690197939938146       31.723213396890632
S           2.131894840282948        3.641203507802964        8.539883173123860        1.223611166628779        8.263609469321210      -33.822059580849519
S           2.131602212715067        3.629647241523099       11.349071246338683       -5.437718492900397       -9.605437440998404       47.024891812230393
