# total energy = -9687.996604721635 eV 

 CRYSTAL
 PRIMVEC
        6.402145111576700        0.000000000000000        0.000000000000000
       -3.201072555788350        5.544417720253212        0.000000000000000
        0.000000000000000        0.000000000000000       20.000000427745366
 PRIMCOORD
12 1
Mo          1.622562858150555        0.868735879842845        9.806764908184475       -0.272450667706611        0.359748143659770        0.129942583362509
Mo         -0.032521616737787        3.724784671492614        9.823963630812214        0.154925232607032       -0.026127819103993       -0.119596716731345
Mo          4.874971014516082        0.873120709029763        9.896992900099971       -0.379283394203667        0.250951093470224        0.066489014555177
Mo          3.167183440854730        3.714594377118517       10.152869354417890        0.141377826889627       -0.040314144242320        0.562494887982553
S           1.601795579837622        2.825290325675711        8.025712466295261       -0.216904015982412       -0.213162287880736        3.980537669265189
S           1.618556395739730        2.785825582564418       12.073044250868731        0.056145976138753        0.112142056896260       -4.345921673571475
S          -0.051516141069324        5.573311241356268        7.870606416248069        0.282239890254759       -0.226379820915227        4.319026122720652
S          -0.003478285439120        5.576354821142312       12.131888287232766        0.152392180641272       -0.043903920079302       -4.102749713300200
S           4.774582818308515        2.779422797238330        8.039239558701512        0.280189177457469       -0.117022269986201        4.043265929546799
S           4.732331861644664        2.806838063035124       12.260365254902865       -0.069824508175945        0.007877863604436       -4.223983709255861
S           3.229039686493762        5.587538728437725        7.854766869027518       -0.076073577200286        0.101903148204372        4.193016814730879
S           3.185451321716103        5.535620532655394       12.077783118680321       -0.052734120719991       -0.165712300737714       -4.502521466415311
