# total energy = -9673.077045482718 eV 

 CRYSTAL
 PRIMVEC
        7.293967529316399        0.000000000000000        0.000000000000000
       -3.646983764658200        6.316758229576235        0.000000000000000
        0.000000000000000        0.000000000000000       19.999949555872629
 PRIMCOORD
12 1
Mo          1.879235299775147        1.041320356735844       10.170640488980764       -1.531295476462055        0.319908368162561       -0.362419778147815
Mo         -0.063743441032202        4.193796463602486        9.900505483945519        0.805695130401232        0.536377610406229        0.162903112169109
Mo          5.453694415892601        1.052698946081577        9.872913863575622        2.129162331983127       -1.306317935837252       -0.204347513865903
Mo          3.618373906421209        4.181198322885850       10.000623211649669        1.892450785510437        1.392168394285001       -0.140870290898923
S           1.824722374651295        3.144953838153657        9.066840735785549       -0.499056745801078       -0.724800732620555      -16.254067130790599
S           1.820855113067252        3.191773815724340       10.767286303482093       -1.505551266121046        0.223293981522915       16.360203088019770
S           0.001552156290239        6.305161550601374        9.167097778269508       -0.834214333623530       -0.622648958629450      -20.118973240390620
S           0.042589476403678        6.356126689918967       10.819405348462823        1.002805499856638       -1.171412092715603       20.419338901806785
S           5.472818469357716        3.104145548620638        9.279090814508137       -1.025930012016655        1.123640460423458      -21.165073308605198
S           5.469098545917764        3.102931103027007       10.925411496153389        0.029013369470591        0.186344384380062       21.320327128342988
S           3.669452102235506        6.290444512317473        9.142942346002672        0.170321519433430        0.186677342388148       -7.400528576283164
S           3.684399629893334        6.349988086846294       11.050923901207607       -0.633401059741522       -0.143230564655082        7.383507608643568
