# total energy = -9540.457753151477 eV 

 CRYSTAL
 PRIMVEC
        3.822194351802100        0.000000000000000        0.000000000000000
       -1.911097175901050        3.310115863519414        0.000000000000000
        0.000000000000000        0.000000000000000       20.000094431321056
 PRIMCOORD
12 1
Mo          0.928983954986065        0.574700938323177       10.193947899566318        5.472237110918579       -4.393614372961316       -3.963359350041848
Mo         -0.006056649169866        2.180408989929026       10.045650198691314       -9.955489693196462        3.935089543937576        4.323527097924936
Mo          2.848156663113603        0.519522211782821        9.845432191960866       -4.617912627827539        4.537412894558376       -4.257833840153562
Mo          1.881751896545654        2.226254682301152        9.876058670862985        8.965769571612805       -2.579093244852224        1.249912792384097
S           0.939983465891681        1.678244891575479        8.241525540553020        0.053550446338271       -4.357340204920580      -15.978657893354999
S           0.950960808070057        1.651903474761165       11.892345693081110        1.030354368312514        4.435885641804059       16.575700709944861
S          -0.023932669933809        3.299560109378042        7.982572255437863       -2.214297509211961        2.252415159042640      -13.318580776292126
S          -0.001754387207477        3.331332482146832       11.760543436370178        5.490435644331946       -1.772521110771007       18.240460925563070
S           2.880166011932205        1.672906814943752        8.250205361706527       -0.176440747690139        1.131677732495085      -19.442599514550711
S           2.853506970767255        1.656548969776345       12.113932823993615       -0.015729244834483        0.253362017981281       12.939162142001777
S           1.881970526062577        3.333922401039613        7.952434635193339        2.359593184848468        0.497846527002576      -14.993905145297378
S           1.933212010201142        3.322225721884228       11.732014195508892       -6.392070503602000       -3.941120840426899       18.626172594761453
