# total energy = -9683.586165581868 eV 

 CRYSTAL
 PRIMVEC
        8.185842864781000        0.000000000000000        0.000000000000000
       -4.092921432390500        7.089144566971965        0.000000000000000
        0.000000000000000        0.000000000000000       20.000036021847581
 PRIMCOORD
12 1
Mo          2.093266547111781        1.165104112292863        9.820572875147782       -0.065950625312759        0.072351132380932       -0.319231139287428
Mo          0.028286998603537        4.769150637112912       10.088651861710781       -0.197569311574659        0.013688302233569        0.147954711713434
Mo          6.118616302406373        1.225536915826396        9.981708736188137       -0.057966060879478       -0.009180385047649        0.008907590880407
Mo          4.084913222315885        4.678452316755425       10.096012571614791        0.040688239919358        0.003881596176115        0.209588710000904
S           2.004031855458517        3.538039162295601        8.727119445450347        0.134031924766835       -0.329583947900228        0.547517434048180
S           2.046315826776543        3.603426856515185       11.488990903240284        0.163914841714914        0.317560178596656       -0.971711078557903
S          -0.038973616463509        7.117287494741082        8.643152343680567       -0.128727479465820        0.269796516727871        0.625285111878023
S          -0.055823355416374        7.072668921038020       11.424159846335504        0.176477257371334       -0.183608472284279       -0.878631703233447
S           6.138144449144595        3.610528075200383        8.452569550102739       -0.085026676626972       -0.228107603011239        1.925834518086388
S           6.065257704276585        3.551847042039913       11.546680630829826       -0.115567796278293        0.039727932459744       -1.622208182184861
S           4.108350927606326        7.137629314260063        8.339288945034179        0.217639608925372        0.203103356490516        1.993953098552952
S           3.996429172453321        7.125310439332854       11.455633593566301       -0.081944179670263       -0.169628606822008       -1.667259329007080
