# total energy = -9698.78551198764 eV 

 CRYSTAL
 PRIMVEC
        6.211059206962799        0.000000000000000        0.000000000000000
       -3.105529603481400        5.378932549709958        0.000000000000000
        0.000000000000000        0.000000000000000       20.000070264801529
 PRIMCOORD
12 1
Mo          1.557809424028595        0.934006040318731        9.928907324574469       -0.315255183583152        0.604815779138470        3.323593521582056
Mo         -0.062866477975115        3.637396267703880       10.040740551125436        3.128960154018463       -2.247805169015631       -0.760869726537391
Mo          4.696162612101030        0.911035680053621        9.905874232611367       -1.777173009798260       -0.410656008988694        4.185534901190113
Mo          3.129490627690021        3.630843600240534       10.118551458658425       -1.748987793025772       -0.217713656729486       -1.006319171006057
S           1.554549239050860        2.662149415356836        8.436428926814312        0.169618579515201        1.551205851124714       -0.490877034550702
S           1.575432683422431        2.733229398027239       11.600650555377825       -0.776750666526137       -0.448099772379841        0.321716882933892
S          -0.002963296347642        5.344531977186274        8.472565490386341        0.027298700006558        0.465987973503046       -2.543457739121977
S          -0.046319595141846        5.382911354237939       11.386302554404095        0.715912682132901        1.515313749184375        3.429520448030861
S           4.662008618627863        2.738670285892538        8.603849891055756       -0.852333934134593        0.482280547291750       -4.049865182978100
S           4.647459212435553        2.652989345238407       11.480578358788822        0.372373808482205       -0.294886381022102        2.970584756538456
S           3.117428129604178        5.392937867115739        8.621927178877622        0.533957172809226       -1.358821428500677       -4.690546067461659
S           3.062258396198331        5.426724165883854       11.690915257726697        0.522379747213792        0.358378516394077       -0.689015845729924
