# total energy = -9686.842156070577 eV 

 CRYSTAL
 PRIMVEC
        7.039168683922899        0.000000000000000        0.000000000000000
       -3.519584341961449        6.096096059494329        0.000000000000000
        0.000000000000000        0.000000000000000       19.999981709846463
 PRIMCOORD
12 1
Mo          1.795254094976591        1.018787330626582        9.842326850823859       -0.983138865882523       -2.666739105439325        0.478033597193249
Mo          0.084421453943156        4.002649404646264       10.075236048570027       -3.293738115450090        2.184950924622854       -0.522512416196164
Mo          5.316025944695019        1.033930694216305       10.008443488678887       -2.750713171961972        1.388536452337343        0.467325461964870
Mo          3.574631344986595        4.014466761032833       10.039952919458731        0.897522635037373        1.975895718766179       -0.210994846947792
S           1.838371114916224        2.994275820170677        9.066060702781341        0.380349888271265        1.451016086832221       -8.911847600701805
S           1.769405563652358        3.019010755009114       11.026614892045627        1.022190597908858       -0.551460736727724        8.375208251876865
S           0.016450537214328        6.119986998007563        8.864649673145124        0.817089493369828       -1.193656515870464       -5.376661193309558
S          -0.031859277463435        6.104411429460646       11.136114792258994        0.205583700817931       -0.329507328991803        5.139595862883875
S           5.298663131219254        3.019421138543386        8.748299957885431        0.421961154637749        0.563217368293534       -5.008205490684663
S           5.312771033095573        3.083702826964970       11.032127265042007        0.515996980765354       -0.294129190802942        6.257487334071199
S           3.420327136100058        6.154004484589489        9.019104520241497        1.933877446587495       -1.756814234544017       -6.361673108681582
S           3.546446513576167        6.150968491136113       11.171239540074900        0.833018255898731       -0.771309438475854        5.674244148531507
