# total energy = -9677.235617980743 eV 

 CRYSTAL
 PRIMVEC
        7.293967529316399        0.000000000000000        0.000000000000000
       -3.646983764658200        6.316758229576235        0.000000000000000
        0.000000000000000        0.000000000000000       19.999949555872629
 PRIMCOORD
12 1
Mo          1.748204278888249        1.055083344066911       10.095842310761130        0.128573727428109        0.113559506702110        0.276313494821266
Mo         -0.043846227008980        4.174988238931390        9.897964265658306       -0.021898352514797       -0.252048183679105       -0.195433752335153
Mo          5.542734795109978        1.031683566836111       10.150566760943333       -0.106732710539415        0.303632763662300        0.376198069032217
Mo          3.707772419444276        4.164719791443618       10.115387955549441       -0.001943240637152       -0.150698594232577        0.186812325364399
S           1.893718931098111        3.138007063478736        7.744665429936624       -0.388107424194014        0.082441688354159        4.193554689752435
S           1.832718751253685        3.174326645394215       12.048967689798513        0.138974615691498       -0.275269883582023       -4.273478495656261
S          -0.046223331026784        6.363447645128142        7.644182274459255       -0.070738535757988       -0.390845136062814        3.947956892565109
S           0.059782087267030        6.315832625096764       12.088230387612068       -0.041231257149533        0.203411374786799       -4.217834141968299
S           5.471038741280562        3.100009139634763        7.984938202510094        0.354657100016447        0.276139688169941        4.501149268045309
S           5.451719209485662        3.104721772055454       12.179442180962923       -0.122549372920423       -0.101389441563326       -4.341837474375767
S           3.601273199548726        6.298442347713368        7.635973643401762        0.104910568915243        0.034664913853395        3.904177413934389
S           3.669910892793100        6.281649446270623       12.054228828577408        0.026085138772454        0.156401817812002       -4.357578289179643
