# total energy = -9665.33729855696 eV 

 CRYSTAL
 PRIMVEC
        8.727297025957800        0.000000000000000        0.000000000000000
       -4.363648512978900        7.558057406905104        0.000000000000000
        0.000000000000000        0.000000000000000       19.999988775209427
 PRIMCOORD
12 1
Mo          2.146299793945289        1.287779003637471       10.140250778108880       -0.065188292884980       -0.119514184283009       -0.039313213334615
Mo          0.065296763618514        5.028783746677626        9.843475551822374        0.028464438700504        0.141793317346049       -0.512696968384058
Mo          6.565102205939134        1.225089083640611       10.083593165816362       -0.094977621636191       -0.043622641267838       -0.132563824206087
Mo          4.382762166195450        5.098468595240792       10.173103815033395        0.102636684263885        0.110817423955984        0.405891238482252
S           2.163555405625012        3.704360568287565        7.828399395959387       -0.485389269512416        0.210930569340054        3.252729773044194
S           2.135020635268941        3.799103232071660       11.952246223096640        0.235166055672224       -0.164359385650034       -3.241827519440444
S          -0.036288101033933        7.549969820751148        8.009171390176862        0.156244980449120       -0.447099098582568        3.132008455287855
S           0.057254559409094        7.518112568417294       11.887341315114591        0.107652908771800        0.315985377207062       -3.030806961449557
S           6.584022113161708        3.724127023321656        7.992094688086171        0.427816073371437        0.113621727426401        3.187809132117837
S           6.528335849028180        3.741845181743756       12.067662980805526       -0.380297437743350       -0.077507224963287       -3.090016665483560
S           4.328684342903805        7.619102231412570        7.892955212060398       -0.114256275969996        0.079596247214789        3.276508631250989
S           4.440445235888518        7.552022481011654       11.911338763746867        0.082128527849257       -0.120642384854036       -3.207722077884806
