# total energy = -9281.94044306256 eV 

 CRYSTAL
 PRIMVEC
        4.204419078754800        0.000000000000000        0.000000000000000
       -2.102209539377400        3.641132032678625        0.000000000000000
        0.000000000000000        0.000000000000000       20.000118839462914
 PRIMCOORD
12 1
Mo          1.037332774554331        0.625633535711213       10.082405910482224       29.875217004892171       20.660602845569947       -4.760994325543098
Mo         -0.017917552346021        2.456195978852174        9.926358896374239        9.586770452379838      -17.025219217682707       31.326799763114213
Mo          3.115339155062971        0.611115256190365       10.037063352927392        0.599390234824475       -4.175207289399546       -0.152223001977704
Mo          2.158528153379228        2.397545173587360        9.902011105489171      -16.932330361187589      -13.016989983672465       14.481934256770336
S           1.051161529346263        1.838697994058351        9.045554121470502       -2.222687022573996      -12.236684765438387      -99.340919346907327
S           1.084326827923297        1.825572218136386       11.089353348354393       -0.056008164947762       15.167669373401283       79.071923198496677
S           0.039819632652979        3.613427013159171        9.104863759204958       -9.496334686506453       22.749858553343817     -113.796656364757311
S           0.040308606591838        3.612911551380115       11.069219226270052       -2.448716659082264       -8.478369955640758       91.826427086324586
S           3.171103626630219        1.815804932174531        8.988545562297851        6.872317564495332      -15.487062492260211     -106.795633689403658
S           3.158682090903946        1.785375028650135       10.901312807266624        4.505727633489310       14.381579427581167      109.324515066863540
S           2.115912582038878        3.657221083167296        9.160842656145222       -2.628842056358406       14.200358996979590     -110.294085186862887
S           2.153120429560134        3.611433277632025       10.886047822917389      -17.654503939424657      -16.740535492781731      109.108912286772181
