# total energy = -9681.726837279237 eV 

 CRYSTAL
 PRIMVEC
        5.828834480010100        0.000000000000000        0.000000000000000
       -2.914417240005050        5.047916380550747        0.000000000000000
        0.000000000000000        0.000000000000000       20.000054246341612
 PRIMCOORD
12 1
Mo          1.490421318869622        0.809886823941555        9.874101565948116       -4.805231460740917        0.613734168656977       13.371634742388226
Mo          0.012072681974997        3.407299403450568        9.995904388543096       -4.336284403288019       -3.492742617450334        4.077051525726331
Mo          4.409335504676000        0.816595812428047       10.063505462191909        0.344652676037589        4.582331115287793        2.884406739401671
Mo          2.894441824242055        3.402369958130824        9.884392956106023        5.581698791572142       -1.368805540755489        6.800540816817152
S           1.446100610133970        2.520650326707968        8.805030370901880       -1.625652176407492        0.725964671541485      -17.560299963075206
S           1.472008613630719        2.567216885368768       11.268546462036790        0.863061609755725       -2.053388031324471        9.794577387094231
S           0.021941481633102        5.093418011152050        8.864204698542943        4.437320060898352       -1.735190218859048      -18.932637686931145
S           0.064027415229119        5.002358793138435       11.423746174668434       -2.002408689295742        1.467954522023481        8.343449971445407
S           4.435285475781005        2.490556054287675        8.596107456634879       -0.427868523899351       -0.287347903186526       -8.060436950124767
S           4.314624521860660        2.552699007329407       11.401046361669483        0.141639565308338        0.753846755115878        6.119216429629222
S           2.859895488045931        5.059991394059535        8.682529836819645       -0.031425322423372        1.530444698046028      -13.689888347817165
S           2.941911852247257        5.051077357489256       11.406497487675187        1.860497872482747       -0.736801876206203        6.852385592556474
