# total energy = -9687.835081955905 eV 

 CRYSTAL
 PRIMVEC
        5.446609753057400        0.000000000000000        0.000000000000000
       -2.723304876528700        4.716900211391535        0.000000000000000
        0.000000000000000        0.000000000000000       20.000032712373070
 PRIMCOORD
12 1
Mo          1.392642013776321        0.815782860254407        9.861617457700371       -0.716848821212005       -0.841204652020311       -0.342134536476824
Mo          0.034578891339236        3.112106756462900        9.962971784612089       -1.051719988014374       -0.126450252378859        0.013820971215941
Mo          4.062045606205839        0.749402303889020        9.896617916634492        1.097522925736703        1.178513225708126        0.415285539408455
Mo          2.751403391583747        3.166066863947415       10.144818833759368       -0.031389584073470       -0.968199978512793        1.319868426879829
S           1.311242975677853        2.350363524195403        8.108294954805860        0.514244773178402        0.229021373482850        0.930204199026387
S           1.350169350921979        2.373951157052969       12.124796010256633        0.153712699814653        0.455948325395148       -2.059634015023640
S           0.071049390245708        4.683937873827007        8.174767558876074       -0.969438479458700       -0.285771302023915        0.402378595774556
S          -0.050567414269336        4.716277663896761       11.907688154229037        0.413128640003180       -0.367562500987760       -1.480190664543020
S           4.055572310514330        2.351639664860544        7.938208225437384        0.493196427748339       -0.073868855254854        1.726701717981097
S           4.096203474611163        2.331290586162147       12.113993204472420       -0.028567025762455        0.195435037887308       -2.207077076979476
S           2.725028183854567        4.682431886230287        7.944485443177783        0.196628030286936        0.217359358555632        2.204024147722326
S           2.725494413649429        4.746631620050549       11.782760900306084       -0.070469598247209        0.386780477259860       -0.923247047875199
