# total energy = -9675.871933285638 eV 

 CRYSTAL
 PRIMVEC
        6.784369838529400        0.000000000000000        0.000000000000000
       -3.392184919264700        5.875433889412424        0.000000000000000
        0.000000000000000        0.000000000000000       20.000016987341937
 PRIMCOORD
12 1
Mo          1.652142633381373        1.018217900039024       10.184643761952579        0.890894328127375        4.666308267135610       -0.991257899071194
Mo          0.028475357086276        3.943651743152578       10.020999333951378       -0.840355930487732       -4.734018556237819        0.169039052603830
Mo          5.062023224495908        0.940484625740106       10.057483639632038        2.403824920727236        4.307323484345342        1.047338312050053
Mo          3.358326843148535        3.894321911619647       10.011872321207605       -0.563476021387074       -1.848993209139272       -0.971001453768470
S           1.675461190953382        2.980358066015337        8.992230381939473       -0.314270707743029       -1.855531527398436      -10.400480486245206
S           1.712643608290426        2.991848074773870       11.076067895642341       -0.661189040898186        0.070034824508466       10.724051135386278
S          -0.029330866122914        5.913342912759174        9.182219874897651       -1.556913702691897        0.611145580838130      -16.492869756398239
S          -0.043535301253843        5.860740301216136       10.927338226294165       -0.059613110300170        0.381801276654001       16.512408863598601
S           5.092143112831043        2.979480168558231        9.008718435958050        0.619462589058635       -1.045173185110988       -8.465401819724292
S           4.986853763558971        2.994991951757044       11.145032371924961        1.731057682902322       -1.039312095726957        8.564845449546157
S           3.360401503445158        5.888136943498086        8.978393659653792        0.712759479807679        0.591857670528811      -12.926393523779732
S           3.455292449065716        5.823548385761318       10.805121874274962       -2.362180487115159       -0.105442530396887       13.229721868691781
