# total energy = -9540.785846532974 eV 

 CRYSTAL
 PRIMVEC
        4.013280256416000        0.000000000000000        0.000000000000000
       -2.006640128208000        3.475601034062666        0.000000000000000
        0.000000000000000        0.000000000000000       19.999977480556058
 PRIMCOORD
12 1
Mo          1.001404926765638        0.576874923977620        9.937869181829093       -6.024698778554008        1.073521409896701       -4.926989447754862
Mo         -0.007535736337472        2.294115406255334       10.126582448702337        5.655601585403883       -0.225432626087592       -7.633254396855202
Mo          2.996948736392673        0.597695019291855        9.999355845981592        5.370797532821217       -5.913871584401647       -6.825409823251193
Mo          2.023475437555639        2.286976583335222        9.922936969979046       -6.849050870266998        6.881991858680845       -2.965911260235003
S           0.979265264903094        1.770058059748328        8.307935203561556       -1.790990124357737        0.401445284910192      -21.499590691454575
S           1.019135598938484        1.734962325233996       11.645479396803511        2.456805096129651       -1.090382197737813       24.738080146169938
S           0.010434929994707        3.487301351322221        8.464625303284780        1.692086683551307       -2.884194109075272      -26.998699699064325
S          -0.026350796835602        3.491469142868509       11.494912760095527       -1.369825497835084        3.337654891050939       32.870019764253492
S           2.993485676859412        1.740257447204311        8.406180705566644        3.586090158954276       -0.818491773660252      -26.383517484460217
S           3.008159032132920        1.742747687603417       11.587953438936069       -3.719780126847942       -0.089384441321214       29.539982798161294
S           2.055947289438327        3.455797502637381        8.179793974270373       -1.491653933107111        1.273695507247357      -18.444297303892235
S           1.960975821466421        3.484431855938884       11.497955227857915        2.484618274108548       -1.946551705281381       28.529587655493319
