# total energy = -9690.426515320112 eV 

 CRYSTAL
 PRIMVEC
        6.083633325403599        0.000000000000000        0.000000000000000
       -3.041816662701800        5.268578550632652        0.000000000000000
        0.000000000000000        0.000000000000000       20.000011477230910
 PRIMCOORD
12 1
Mo          1.600149480504279        0.838967103919778        9.837826416336847       -0.621404801254063        0.166819932474265       -0.421849568710714
Mo          0.031557022785534        3.458518777505314        9.928195139205725       -0.257981006873372        0.510152603559336       -0.415649864889117
Mo          4.585096338880206        0.868205654045001       10.104084537546461       -0.163236841508488        0.099255424986406       -0.018284922518167
Mo          3.027407577170581        3.515378848017866       10.122657870088918        0.336964817041629        0.027007908109149        0.035372224648950
S           1.488082262653687        2.583623560255700        7.848436341859927        0.094035569017175       -0.009746799327041        4.227682499915567
S           1.472318960344234        2.641466745913637       11.867626416814431        0.300837459056967       -0.179435827100324       -3.636722144790786
S          -0.028585776269406        5.220414425595432        7.826851002458062        0.134847993274684       -0.036206033776534        4.178328867141762
S           0.028673380589292        5.272119833591369       12.150168599346150        0.145048335401928       -0.020858855042449       -3.850410223502823
S           4.591908791477993        2.624829225495323        7.981229281723504       -0.013052468137819       -0.098163734096575        4.017574426844136
S           4.577778944716410        2.674691900956996       12.090908535486728       -0.250777801039761       -0.185179417017409       -4.266041062220049
S           3.044997794567653        5.280550532653713        8.005094158532398        0.052157936244223       -0.065008572693743        4.046025238691800
S           2.991939994883478        5.297707595358017       11.994633213022219        0.242561065887328       -0.208636115854219       -3.896025470610556
