# total energy = -9681.432449565671 eV 

 CRYSTAL
 PRIMVEC
        5.191810907663900        0.000000000000000        0.000000000000000
       -2.595905453831950        4.496238041309629        0.000000000000000
        0.000000000000000        0.000000000000000       20.000080883695549
 PRIMCOORD
12 1
Mo          1.263385130711658        0.734242512356733       10.119280762964092        0.159744510524837        1.921235326697480        1.756036732600811
Mo         -0.031265604467043        3.022118863399165       10.057016932291752        2.775354635664618       -2.190362070752715        1.334872620299021
Mo          3.868269821508413        0.785533450675726        9.968502786489172        1.425887398862915       -1.986784088406657        2.724339041065125
Mo          2.661976439442881        2.955013669055428        9.920274497424609       -4.197404918455974        0.658262867083497        1.461036194547366
S           1.266283199560316        2.261858109859765        7.985594446525098        0.506813767502965       -0.075249281158647        0.385111573452536
S           1.329509591974938        2.272734953711321       12.045064126692230       -0.328039228431055       -0.165302980931635       -0.878380249231974
S           0.062826103793641        4.462459081182186        8.320071153259345       -2.145738498577172        0.022546785021663       -2.451889401800238
S           0.034536445338871        4.457313477391600       11.772310263933745       -0.347240749635574        0.658376252783548        1.739103696728601
S           3.908777368572188        2.204545709250064        8.332061121369506        0.506176133634198        1.370624082833628       -4.516809607284295
S           3.870581734905596        2.257047897053815       11.936954528980856        0.122194303415275        0.338072448778179        0.605720550744997
S           2.557235807829488        4.505519441669260        8.303146368881452        1.505561293427853       -0.313787597243266       -2.130960819447651
S           2.585636051856591        4.494697631013325       11.965600345663891        0.016691609177544       -0.237631744705074       -0.028179817453438
