# total energy = -9689.862689069698 eV 

 CRYSTAL
 PRIMVEC
        5.828834480010100        0.000000000000000        0.000000000000000
       -2.914417240005050        5.047916380550747        0.000000000000000
        0.000000000000000        0.000000000000000       20.000054246341612
 PRIMCOORD
12 1
Mo          1.470816616979557        0.846729720922803       10.131106535840722        1.639770367281616       -1.027617941995869       -5.710384104927286
Mo         -0.041948373102289        3.381847214810156       10.022251886159637        3.437505269574573        3.304918048319270       -0.741750223560347
Mo          4.416989347231701        0.815821743209102        9.810471677230534       -4.722894159221725        0.578200221546957        7.298258017272959
Mo          2.883076179889483        3.372278600127771        9.892358058422957        2.153499891156386        2.215179655100565        7.683229722651056
S           1.486990466894689        2.554834109399435        8.716350483123007       -4.262680628887479       -3.191197590487381      -10.508039806820138
S           1.456319722744323        2.493851094419225       11.526691551953686        0.187851822836746        2.241104614074535        4.664513122106688
S           0.002245267041700        5.084323863596338        8.461509176589383       -2.214647179398059       -1.005667653174020       -4.062960331447457
S          -0.026747355661870        5.067422575138100       11.618685132134443        1.935792919298104       -0.229136044735056        2.093856698935794
S           4.324541700844949        2.548884035162240        8.584624069825811        2.041188912706989        0.906608146336000       -9.455177991381897
S           4.403166266262358        2.524260123901438       11.292513463651694       -2.877161110346952       -2.070383030810541        7.989410193573681
S           2.864822018948436        5.059016230051030        8.478113777372586        4.361073705488465       -0.119390771276151       -7.308613911210930
S           2.873996604419972        5.077160226020405       11.318994441577829       -1.679300067599094       -1.602617910008739        8.057658357697447
