# total energy = -9693.14250218332 eV 

 CRYSTAL
 PRIMVEC
        6.529570993135899        0.000000000000000        0.000000000000000
       -3.264785496567950        5.654771719330517        0.000000000000000
        0.000000000000000        0.000000000000000       20.000062892833274
 PRIMCOORD
12 1
Mo          1.649497612457594        0.975702693233609        9.806295810264798        0.265920834091668        1.809719590811024        2.401389313614807
Mo          0.014525030674231        3.777576866071587        9.986500869404660        1.054190047924551        0.438750722889486       -0.693377724191062
Mo          4.815424098275267        0.972531933559342       10.032449460483358        1.678448517851774       -1.189509067508743       -3.150618879611610
Mo          3.358112001815742        3.716048718603267       10.145566442454244       -6.288173721116008        1.508194104240824       -5.349582322721465
S           1.661638696762231        2.877128131490968        8.570456314578854        0.609732759020037        1.203704391512153       -2.901841911945535
S           1.622411646063867        2.821397590107454       11.422053170529560       -0.407065976041281       -0.793051982069492        2.641895552937949
S          -0.059094576359178        5.708307018946139        8.531666745137031        1.586536166773419       -1.075026534359507       -4.283469549892708
S          -0.037506508741672        5.704906418372913       11.163493259472068       -1.512070815318751       -0.552250322861184        7.062062491435194
S           4.942524809485055        2.812817733822473        8.776364376976098       -0.580096410975244        0.196087327050639       -7.115436817128261
S           4.811590587145197        2.873203859324093       11.234749161805961        5.326938607067333       -2.183305160754316        9.996739719407454
S           3.321884636031625        5.626800343110122        8.735100753084975       -2.487747308053260       -1.198458824499826       -6.167218947088363
S           3.260551722736000        5.650025374175606       11.138310663022839        0.753387812996625        1.835145755548943        7.559459075183600
