# total energy = -9632.514537569745 eV 

 CRYSTAL
 PRIMVEC
        4.936959144545499        0.000000000000000        0.000000000000000
       -2.468479572272750        4.275530043155016        0.000000000000000
        0.000000000000000        0.000000000000000       19.999922649061634
 PRIMCOORD
12 1
Mo          1.284552336778438        0.699991195572614       10.087475343414773       -0.797822151894985      -15.352552084981371      -11.506229145999425
Mo          0.014200669283371        2.818821497743046       10.053829966844695      -13.625749579711341        8.218264702386843       -0.451205152164906
Mo          3.719358885509900        0.677590237150153       10.038791495594495       -3.530768221746731        4.715588109215732       -5.487385286179105
Mo          2.535422763489129        2.812005531948087       10.060128539321308        7.672488163066652        5.542749389497327       -9.748194922460531
S           1.233204505803764        2.111987183100178        8.857506520634345        1.984286774790800        0.504330594960809      -31.059855115286485
S           1.250947936969260        2.102328022533875       11.203113572629904        0.727602979207525        4.066971768391205       36.187479916505133
S          -0.005895222914502        4.264060993366322        8.589718451195480        0.241304052990393       -0.866972773631399      -16.269284468757053
S           0.007438022647172        4.313603872077751       11.511110212125605        1.823849351654541       -2.605097136728497       17.975067939186150
S           3.729998526162310        2.097106694542604        8.506671392945508        0.148324436513146        0.244829551219636      -13.140227641216550
S           3.665641807841759        2.138622571380916       11.522175912352187        2.655754319387240       -1.788903158989682       17.322000245470512
S           2.427883944618981        4.284421506574343        8.508704926417147        2.351935150662498       -1.178891949372922      -12.236226080429564
S           2.464608502607511        4.282167291028943       11.293171606561044        0.348794982190692       -1.500317011967681       28.414059711331824
