# total energy = -9621.60049543326 eV 

 CRYSTAL
 PRIMVEC
        4.204419078754800        0.000000000000000        0.000000000000000
       -2.102209539377400        3.641132032678625        0.000000000000000
        0.000000000000000        0.000000000000000       20.000118839462914
 PRIMCOORD
12 1
Mo          1.005171911695212        0.619324384441634       10.051342821444569        5.326386848082505        2.083992914362669        0.508969895576946
Mo         -0.001479114631906        2.444282336950614       10.073435782377700        0.138772526892768        1.071782057831296        1.887488297082591
Mo          3.152629409198171        0.606586676400638       10.050445598413161       -5.265487414296271        1.950239954413419        1.558823261862593
Mo          2.091942768428988        2.460775432112753        9.937195366107822       -0.695127103563274       -5.053815852694208       -3.295072775697172
S           1.061819311268999        1.792823997931965        7.763659118385070       -0.135760221083709        0.448868532568394       -6.395771351145154
S           1.071577347508881        1.794420415856168       12.097327925807503       -0.474059698372421        0.281690188153379        5.459791680508244
S          -0.028275979630350        3.631618273187219        7.911827471581376        0.001056466760791       -0.389847033369850       -5.413168560511170
S           0.005830688378417        3.657897153755160       12.240806249521457        0.487597591003882       -0.238026409216589        6.302847270520993
S           3.149051028120243        1.828503118676186        8.119241555342139        0.617178419990039        0.121166633022751       -5.754274141043315
S           3.157705824793859        1.854147972847051       12.048105109884888        0.342676011044414       -0.532910990465674        5.309767486936059
S           2.069065262895760        3.669697276341593        8.051182101062889        0.130001975872060       -0.089787333366519       -5.945701341532910
S           2.104524072080254        3.613796161154285       11.974024927484862       -0.473235145220351        0.346647081650501        5.776300277442297
