# total energy = -9668.638276014211 eV 

 CRYSTAL
 PRIMVEC
        8.536211121343900        0.000000000000000        0.000000000000000
       -4.268105560671950        7.392572236361851        0.000000000000000
        0.000000000000000        0.000000000000000       20.000043889919510
 PRIMCOORD
12 1
Mo          2.162819811814904        1.201820846364017        9.960827077974994       -0.085145975866935        0.102842886829510       -0.088347772063607
Mo          0.041958892145854        4.960206193210495       10.147858878128085        0.111560473101442        0.274964179279619        0.371804308877642
Mo          6.339014280101120        1.219667502955410        9.841645351919903       -0.089805588207117       -0.259548094950038       -0.099980219291266
Mo          4.351980663908050        4.881904382215519        9.896457217151163        0.078656251479221       -0.137676722236042       -0.089680632537673
S           2.097555356065557        3.690303941427088        8.071246262427634        0.303358169722041       -0.128564214342164        3.274373586232346
S           2.204523471248230        3.695062879127237       12.024675497185701       -0.266688051617635        0.072707230327804       -3.279443289709900
S           0.072622669735945        7.344115580310430        8.036548271461594        0.229627382768609        0.389506362048836        3.434485507563017
S           0.079804184152332        7.323894149785079       11.944787658164378       -0.112929843256704       -0.404544751155345       -3.453615809178161
S           6.379249711221575        3.729625997957558        8.016743408038966       -0.510777381906554       -0.182618854235536        3.368472661525967
S           6.377940256435560        3.708381075718758       11.974283682073070        0.146479669171050        0.308488294150870       -3.379867024494563
S           4.290840051751426        7.389225187981173        7.949082837827858       -0.023521233554980       -0.044655453868981        3.214619065195151
S           4.200096713047091        7.436933218317251       11.908589001283207        0.219186128167561        0.009098881041037       -3.272820125008521
