# total energy = -38803.05304081811 eV 

 CRYSTAL
 PRIMVEC
       12.740577282373799        0.000000000000000        0.000000000000000
       -6.370288641186900       11.033658440967770        0.000000000000000
        0.000000000000000        0.000000000000000       19.999979849788435
 PRIMCOORD
48 1
Mo          1.590438113601927        0.918231241548875        9.999991198951946       -0.000326787357743       -0.131782208495986        0.014684090932654
S           1.590438113601927        2.662071001861496        8.438994011334129        0.000000771331293        0.927624610072624       -0.167443425269329
S           1.590438113601927        2.852282724456424       11.560989660627493       -0.000008227533791       -0.796093341357249        0.152734394624872
Mo         -0.002132772637069        3.676646488819681        9.999991198951946       -0.000101301509796       -0.131499901242799        0.014699774668942
S          -0.002134046694798        5.420484975074574        8.438994011334129        0.000005913539912        0.927616896759696       -0.167441882606743
S          -0.002134046694798        5.610696697669502       11.560989660627493        0.000003856656464       -0.796092055805094        0.152737479950044
Mo         -1.594706206991522        6.435060462032760        9.999991198951946        0.000226000068809       -0.131415826131877        0.014709030644457
S          -1.594706206991522        8.178900222345380        8.438994011334129        0.000010798638100        0.927633866048139       -0.167404344483824
S          -1.594706206991522        8.369110670882581       11.560989660627493        0.000010284417238       -0.796111081976985        0.152744679042110
Mo         -3.187277093230519        9.193474435245838        9.999991198951946       -0.000028539257836       -0.131622028697502        0.014737312791862
S          -3.187278367288247       10.937310373385275        8.438994011334129       -0.000017226398874        0.927723083367680       -0.167430312637350
S          -3.187278367288247       11.127531014384299       11.560989660627493       -0.000013112631979       -0.796118023958621        0.152714854232120
Mo          4.775582434195377        0.918231241548875        9.999991198951946       -0.000251711111904       -0.132111309847608        0.014685119374378
S           4.775582434195377        2.662071001861496        8.438994011334129        0.000002056883448        0.927644664686239       -0.167444196600622
S           4.775582434195377        2.852282724456424       11.560989660627493        0.000008741754652       -0.796101568891040        0.152702255821003
Mo          3.183011547956380        3.676646488819681        9.999991198951946       -0.000595210647659       -0.131501958126246        0.014700803110666
S           3.183010273898652        5.420484975074574        8.438994011334129        0.000015426625857        0.927629752281243       -0.167443939490191
S           3.183010273898652        5.610696697669502       11.560989660627493       -0.000008741754652       -0.796075857847944        0.152735165956165
Mo          1.590438113601927        6.435060462032760        9.999991198951946       -0.000329101351621       -0.131370060475167        0.014709030644457
S           1.590438113601927        8.178900222345380        8.438994011334129        0.000015940846719        0.927633094716846       -0.167416685784509
S           1.590438113601927        8.369110670882581       11.560989660627493        0.000019026171891       -0.796106453989228        0.152741850827370
Mo         -0.002132772637069        9.193474435245838        9.999991198951946       -0.000020311724045       -0.131895851306468        0.014736798571000
S          -0.002134046694798       10.937310373385275        8.438994011334129        0.000006427760774        0.927715112944320       -0.167406915588133
S          -0.002134046694798       11.127531014384299       11.560989660627493        0.000007199092067       -0.796109796424830        0.152685029422129
Mo          7.960726754788827        0.918231241548875        9.999991198951946        0.000307246964990       -0.132066829743053        0.014685119374378
S           7.960726754788827        2.662071001861496        8.438994011334129        0.000013626852841        0.927643122023653       -0.167442396827605
S           7.960726754788827        2.852282724456424       11.560989660627493        0.000015169515426       -0.796096683792851        0.152711254686086
Mo          6.368154594492102        3.676646488819681        9.999991198951946        0.000075333356270       -0.131503243678401        0.014702088662821
S           6.368154594492102        5.420484975074574        8.438994011334129        0.000002056883448        0.927642607802791       -0.167442653938036
S           6.368154594492102        5.610696697669502       11.560989660627493        0.000007199092067       -0.796066858982861        0.152729509526684
Mo          4.775582434195377        6.435060462032760        9.999991198951946       -0.000253767995352       -0.131041216233977        0.014710316196611
S           4.775582434195377        8.178900222345380        8.438994011334129        0.000024168380510        0.927633866048139       -0.167446510594500
S           4.775582434195377        8.369110670882581       11.560989660627493        0.000015940846719       -0.796086399375613        0.152745193262972
Mo          3.183011547956380        9.193474435245838        9.999991198951946       -0.000035224129041       -0.131530754494513        0.014737569902293
S           3.183010273898652       10.937310373385275        8.438994011334129        0.000025453932664        0.927722312036387       -0.167435197735538
S           3.183010273898652       11.127531014384299       11.560989660627493        0.000023139938786       -0.796118281069052        0.152722053324186
Mo         11.145871075382276        0.918231241548875        9.999991198951946        0.000248625786733       -0.131733871734967        0.014683576711792
S          11.145871075382276        2.662071001861496        8.438994011334129        0.000012341300686        0.927621781857884       -0.167443425269329
S          11.145871075382276        2.852282724456424       11.560989660627493        0.000024939711803       -0.796093341357249        0.152734908845734
Mo          9.553298915085552        3.676646488819681        9.999991198951946        0.000554844309999       -0.131498615690644        0.014700546000235
S           9.553298915085552        5.420484975074574        8.438994011334129       -0.000006941981636        0.927625638514348       -0.167443682379760
S           9.553298915085552        5.610696697669502       11.560989660627493        0.000020054613614       -0.796079714504409        0.152735680177027
Mo          7.960726754788827        6.435060462032760        9.999991198951946        0.000311360731885       -0.131090838547151        0.014710316196611
S           7.960726754788827        8.178900222345380        8.438994011334129       -0.000011312858962        0.927635408710724       -0.167441368385881
S           7.960726754788827        8.369110670882581       11.560989660627493        0.000005656429481       -0.796086399375613        0.152738508391767
Mo          6.368154594492102        9.193474435245838        9.999991198951946       -0.000004885098188       -0.131257960327271        0.014737827012723
S           6.368154594492102       10.937310373385275        8.438994011334129       -0.000003856656464        0.927721540705094       -0.167433655072952
S           6.368154594492102       11.127531014384299       11.560989660627493       -0.000003599546033       -0.796109282203968        0.152718710888584
