# total energy = -9679.68579385832 eV 

 CRYSTAL
 PRIMVEC
        6.083633325403599        0.000000000000000        0.000000000000000
       -3.041816662701800        5.268578550632652        0.000000000000000
        0.000000000000000        0.000000000000000       20.000011477230910
 PRIMCOORD
12 1
Mo          1.511849801329374        0.832495943151547        9.941094266945576        1.042356283229455       -2.144002488947370        1.892033238170568
Mo         -0.027639771287306        3.481628067055192       10.055490907996466        1.507033764865928        4.388776840202913       -2.838675792600009
Mo          4.562342941879864        0.835388102434444        9.924380701110696       -0.239211431192857        1.304279821451078        3.762676945369197
Mo          2.986185486120979        3.509098104972720       10.177562052487353        4.305245517842371        2.973705048728516       -8.562519114366884
S           1.526057518597522        2.602234611324775        8.807503493073161        0.133016852785428        1.960270603656233      -12.288380674238185
S           1.570609790529450        2.588790390038965       11.056748056321375       -5.550921387434774       -3.842023281245099       18.187518031173141
S           0.033045079496927        5.300473823431078        8.768852345466874       -1.275541045920746       -3.269390271859592      -12.334244804243081
S          -0.018681621215649        5.287692109814405       11.334324777332899        0.441014323123607        0.051399203362477        8.345738511391330
S           4.496008220826328        2.652571201822497        8.856720086675676       -0.730471560285680        1.437539643593758      -12.269210006285380
S           4.555268893049084        2.661714294347245       11.200951458850078        0.589300707292972       -3.791174037094433       13.914825779214741
S           3.077238617738962        5.269491095631462        8.712519725963634       -0.955775888268226       -3.007206023660981      -10.564057227743413
S           2.992981512908787        5.248706362375221       11.207498056671545        0.733953606852093        3.937824427591636       12.754295114157978
