# total energy = -9699.263914454577 eV 

 CRYSTAL
 PRIMVEC
        6.529570993135899        0.000000000000000        0.000000000000000
       -3.264785496567950        5.654771719330517        0.000000000000000
        0.000000000000000        0.000000000000000       20.000062892833274
 PRIMCOORD
12 1
Mo          1.592104642299227        0.960761075930016        9.999065069909651        1.339047322366424       -0.056177600721760        0.280180178592386
Mo         -0.037281238542409        3.753827510455353       10.011820586844744        0.606493167590015        0.822945697655671        0.174430658340939
Mo          4.862371713715914        0.984383104911884        9.849974722466282       -0.075783556634170       -0.297392179282181        2.242430018346104
Mo          3.184239973582122        3.815920465814578        9.804589633364291        2.156563104830773       -0.604693394573335        3.065983267950120
S           1.636915782110920        2.853066009424163        8.600525641959344       -2.102571971213847       -0.998502242573758       -3.729735442734488
S           1.631340181439881        2.781573736620318       11.557055315598141       -0.082696227680804        0.756852633164163       -0.224471033075824
S           0.012941609708395        5.659764882268968        8.571352824676211       -1.324908305547392       -0.650680680474659       -2.349667179551051
S          -0.074671520920403        5.666718222419559       11.599760015807449        0.550696604526928       -0.024109502221003       -0.794351932408397
S           4.864709300131457        2.807197732068681        8.380505870731737        0.393642754662026        0.875727898026251       -1.250789538953651
S           4.834770564170830        2.856586754103662       11.304828435446890       -0.849446583994978       -0.218772437484156        1.920022022573807
S           3.275303982480792        5.705868877137302        8.446922708002615        0.041933939957331        0.462933758693742       -2.525530457213267
S           3.207599513810066        5.651256851264913       11.242433813907782       -0.652970248862306       -0.068131950208974        3.191499438133322
