# total energy = -9689.743833637045 eV 

 CRYSTAL
 PRIMVEC
        6.529570993135899        0.000000000000000        0.000000000000000
       -3.264785496567950        5.654771719330517        0.000000000000000
        0.000000000000000        0.000000000000000       20.000062892833274
 PRIMCOORD
12 1
Mo          1.647837142554039        0.953927879885699       10.087317445538680       -0.162393776405389       -0.140094588728735       -0.175178078363723
Mo         -0.042193434800545        3.805297506765846       10.117811195033724        0.224829187906143       -0.285663058532483       -0.212030487763676
Mo          4.915301069143373        0.929026054989177       10.133158951653089       -0.232634546369049        0.154943487447630       -0.454932482082448
Mo          3.254790682248756        3.713882859904844       10.087895965528672       -0.122889272910144        0.403978593986383       -0.212394556133907
S           1.621308148566027        2.798553233030868        7.873521248712295        0.043146472749711        0.011538087699499        4.475573207926144
S           1.588102015280435        2.819179494841086       12.146083344189236        0.039127322493035        0.020929817521393       -4.443804900187879
S           0.065123982214240        5.612816613871222        7.976935941144482       -0.308060205283331        0.125655524036780        4.502695787287498
S           0.025211326561597        5.671809328922906       11.973310895710860       -0.253004891592686       -0.096573248970693       -3.986902695093890
S           4.845532603081716        2.864584172656055        8.044699175954147        0.102240477089784       -0.081593481042441        4.516440139595015
S           4.849994911898425        2.814982286606698       12.126650034999464        0.151018696719115        0.064084260694463       -4.379642992143268
S           3.225856194306874        5.666197815611405        8.155879487168470        0.265616672451849       -0.119314152367726        4.317017576034038
S           3.229685134737248        5.643146471134338       11.967728765468829        0.253004120261393       -0.057891241744070       -3.946840261963474
