# total energy = -9682.333615085761 eV 

 CRYSTAL
 PRIMVEC
        8.376928769394899        0.000000000000000        0.000000000000000
       -4.188464384697450        7.254629737515218        0.000000000000000
        0.000000000000000        0.000000000000000       19.999984452360476
 PRIMCOORD
12 1
Mo          2.078935082722933        1.253855347431521        9.995295282219239        0.018501409501031       -0.079903494179780        0.132392588659072
Mo          0.056463012984352        4.874425113144013       10.088812801922131       -0.197435871260994        0.047984519728975        0.067010691619583
Mo          6.327822254634028        1.181112611076726       10.043477701115044        0.049505842148931        0.027706477150051        0.563505846197064
Mo          4.287902717654552        4.779028648318144        9.808719298510013       -0.130275027149733        0.150461795525668       -0.375187110817706
S           2.128069958419819        3.678789420659786        8.806247206519265        0.296436242699893        0.187006443739769        0.310156169516469
S           2.155012674420823        3.555127522780225       11.316451713076956       -0.309494110156762       -0.156244209117827       -0.385408536000288
S          -0.020073634410101        7.303640634666317        8.777949941136249       -0.056064215021710       -0.090868482728682        0.201632170604596
S           0.010688123416871        7.311592015454226       11.318581966063013        0.285240883204856       -0.207526170123790       -0.339886105758130
S           6.282505583070233        3.695487152775821        8.803223135233514       -0.259003020836415        0.206583603283912        0.277964915119285
S           6.268305013420354        3.646461177152938       11.380505061219255        0.299722114007488       -0.158057351876916       -0.523095799763999
S           4.184987959258151        7.302377393807892        8.576917891449680        0.121064560181662       -0.290249137289412        0.614328350862912
S           4.160498008000824        7.282850772846433       11.252885902189034       -0.118198550207816        0.363106262998462       -0.543412923128428
