# total energy = -9663.170027319838 eV 

 CRYSTAL
 PRIMVEC
        8.918435848296600        0.000000000000000        0.000000000000000
       -4.459217924148300        7.723588405521063        0.000000000000000
        0.000000000000000        0.000000000000000       20.000056148469234
 PRIMCOORD
12 1
Mo          2.312346183282382        1.234859113365335       10.159043785409747        0.344797943431078        0.171713515306615        0.054806173683051
Mo          0.005745256373473        5.156075962339481       10.146827311984749       -0.264601343360011       -0.137278715288925       -0.063861603061257
Mo          6.640799325492203        1.354162813395168       10.031639470098906       -0.365388375183611        0.132194099406375       -0.302213514083433
Mo          4.378123478823324        5.146906918443849       10.196912355865198        0.246932457434410       -0.109122037774272        0.128948080215579
S           2.161781581917100        3.834820393537358        8.089556420555914       -0.010221425182583        0.088521064494070        3.146372700844402
S           2.260869863409599        3.797735753592971       12.161732957603423        0.195310082217865        0.094895346298286       -3.078910780418495
S           0.050433754722117        7.776114425293191        8.014116263558758        0.102317095998209        0.208697822357648        3.201056232851888
S           0.070922077396409        7.739980490610233       12.030894152647402       -0.240982922062131        0.040219013382867       -3.154292216338653
S           6.650078957992355        3.896314792398533        8.096244355598550        0.032039302132491       -0.307561153936849        2.986432529281609
S           6.706427419369063        3.914264928230400       11.901169260328833       -0.012192947967139        0.089922573453201       -2.857553868882388
S           4.435267464677700        7.653147923660462        7.899765862799069       -0.141113774477037        0.017390178218447        2.937955643077356
S           4.408695876911285        7.689932904160346       12.079847447018702        0.113104164128890       -0.289591191696601       -2.998739634280092
