# total energy = -38122.92242573101 eV 

 CRYSTAL
 PRIMVEC
       53.110927513609894        0.000000000000000        0.000000000000000
       -1.659716484800309        2.874735173529163        0.000000000000000
        0.000000000000000        0.000000000000000       19.999981973800079
 PRIMCOORD
48 1
Mo          1.634849948538437        0.943876781586372        9.932492309122992        0.004171102521369        0.002408096296317       -0.106000460032058
Se          1.652865175151053        2.870751853965642        8.273599043699143       -0.022115867939384       -0.012768618222046       -0.009121506758961
Se          1.617063098914129        2.850081080977345       11.612576834624770        0.022432627990320        0.012951423738454       -0.011246267360366
Mo          4.954282918139056        0.943876781586372        9.963625934831470        0.001700014169469        0.000981647625383        0.008828143757242
Se          4.975537911330002        2.872621358614121        8.306432219088057       -0.026698347150280       -0.015414284556564       -0.003549923720184
Se          4.933256301936417        2.848206265236115       11.645410010013684        0.026835387009979        0.015493474569298       -0.008153485986418
Mo          8.273715887739673        0.943876781586372        9.999868831766758       -0.002247145166539       -0.001297379234595        0.004304028614173
Se          8.295241746660940        2.872775380303910        8.342643249466837       -0.028277519417201       -0.016325998144727        0.001648077862416
Se          8.252418405806717        2.848052243546325       11.681626351485214        0.028116825397854        0.016233438389584       -0.003458392406764
Mo         11.593148857340292        0.943876781586372       10.036127661980299       -0.000343242425324       -0.000198232142266       -0.003946645115146
Se         11.611939503494607        2.871197985756756        8.377149419072429       -0.025701787119902       -0.014838871412088        0.005861346494462
Se         11.574586588174286        2.849629638093480       11.716127209998056        0.025036385324592        0.014454748428243        0.003237791657006
Mo         14.912587138033661        0.943876781586372       10.067309087523540        0.000654088936347        0.000377695223072       -0.008295153833874
Se         14.926018891601853        2.868101618682713        8.405107011315593       -0.019293566738800       -0.011139052310658        0.009287342986926
Se         14.899378450361027        2.852726005167523       11.744090113333971        0.018446130758375        0.010649771160552        0.008891650033688
Mo         18.232020107634280        0.943876781586372       10.089036767969358       -0.001393024314910       -0.000804241428025       -0.011139566531520
Se         18.238218152875117        2.863927099780143        8.422585817560321       -0.010124751660544       -0.005845405647743        0.011996515597890
Se         18.226039817196249        2.856900524070092       11.761568919578702        0.009629042749664        0.005559498848522        0.013030870861619
Mo         21.551447766142150        0.943876781586372       10.098267447171223       -0.000452257248048       -0.000261224197849       -0.015471363072236
Se         21.549567639308165        2.859263960344448        8.427132112955487        0.000418832892024        0.000241940915528        0.013630966607466
Se         21.553556269964439        2.861568974598539       11.766120526066617       -0.000652289163331       -0.000376666781348        0.014706202429716
Mo         24.870886046835516        0.943876781586372       10.093689285219549        0.002252287375158        0.001300464559766       -0.015788380233602
Se         24.861198613657034        2.854754842598543        8.418108566370924        0.010944419714426        0.006318745951129        0.013806573031808
Se         24.880796545909558        2.866072781251693       11.757096979482055       -0.010915109125297       -0.006301776662687        0.013948755100125
Mo         28.190319016436138        0.943876781586372       10.075960857615508        0.000589811328609        0.000340414210583       -0.014454748428243
Se         28.174205161028503        2.851042388765341        8.396784528974210        0.019870522545861        0.011472267429175        0.012661660282769
Se         28.206655937739320        2.869785235084894       11.735767630992589       -0.019392040033856       -0.011196130826330        0.010928221757276
Mo         31.509757297129504        0.943876781586372       10.047557133581229       -0.000079447123165       -0.000045765656710       -0.013560004128522
Se         31.489484856097562        2.848647085934477        8.366150145984360        0.026028574477645        0.015027590468409        0.009984883586105
Se         31.530247492964254        2.872180537915758       11.705127936909987       -0.025645479935523       -0.014806475497788        0.006085803900685
Mo         34.829184955637373        0.943876781586372       10.012466743772986        0.001922157581813        0.001109688619998       -0.007548248031952
Se         34.807637852345096        2.847908844042038        8.330507402529976        0.028135851569745        0.016244237027684        0.005317043712132
Se         34.850965747010704        2.872924090900949       11.669490504548355       -0.028287032503146       -0.016331654574208        0.000123927227720
Mo         38.148612614145236        0.943876781586372        9.975639626635049       -0.000292077449564       -0.000168664442706        0.002744396740005
Se         38.128823482553670        2.848923262757548        8.294864659075595        0.026371559792537        0.015225565500244       -0.001081149362162
Se         38.168635433817876        2.871909672185438       11.633847761093971       -0.026716344880447       -0.015424568973802       -0.004740087905071
Mo         41.468056205931362        0.943876781586372        9.942227542136237       -0.001455245039201       -0.000840236888358        0.007075421949428
Se         41.452802747549455        2.851546942576721        8.264230276085742        0.021096425080651        0.012180092445591       -0.007266712110057
Se         41.483522108023323        2.869280681273515       11.603218689196874       -0.021681608421503       -0.012517935551865       -0.008259929704833
Mo         44.787483864439231        0.943876781586372        9.916930807361505        0.000625806788942        0.000361240155491        0.010763156860603
Se         44.778954249480542        2.855424040285214        8.242906238689029        0.012620265503385        0.007286252502810       -0.011898042302835
Se         44.796241856386224        2.865408894657773       11.581889340707407       -0.013400852771762       -0.007736967088273       -0.011352196857919
Mo         48.106922145132593        0.943876781586372        9.903297232268761        0.000557415414309        0.000321902259555        0.014517483373396
Se         48.106306058373441        2.859996891144136        8.233882692104466        0.003708303745652        0.002140958558555       -0.013944898443661
Se         48.107755986694563        2.860830732706100       11.572871105215597       -0.004081113870535       -0.002356159989264       -0.012741621626795
Mo         51.426355114733212        0.943876781586372        9.903244121341247       -0.001117659043358       -0.000645347181695        0.011079402690677
Se         51.433764089121368        2.864628164023323        8.238428987499631        0.048290995362673        0.027880798022238        0.043914718717402
Se         51.419163895147868        2.856199459826913       11.577406778425258       -0.050091025489783       -0.028920038384155        0.044645426562173
