# total energy = -38122.86441239502 eV 

 CRYSTAL
 PRIMVEC
       53.110927513609894        0.000000000000000        0.000000000000000
       -1.659716484800309        2.874735173529163        0.000000000000000
        0.000000000000000        0.000000000000000       19.999981973800079
 PRIMCOORD
48 1
Mo          1.634849948538437        0.943876781586372       10.016566907377037        0.125665551343587        0.072552964069231       -0.985325590097788
Se          1.607524376332685        2.844573477794184        8.330507402529976        0.120076999016367        0.069326485271187        0.056665082098850
Se          1.662398586639747        2.876254146056052       11.669490504548355       -0.110077974356560       -0.063553584764973        0.057007296082450
Mo          4.954282918139056        0.943876781586372        9.968177541319386        0.007303221791253        0.004216353957217       -0.039230166665417
Se          4.930871621291057        2.846830692213512        8.284816071590019        0.029747933971827        0.017174976787738        0.006840680125966
Se          4.977922591975363        2.873996931636723       11.623799173608397       -0.031591158651338       -0.018239156861457        0.001799258795817
Mo          8.273715887739673        0.943876781586372        9.927659214719254       -0.002651322763999       -0.001530578395470        0.015110637137607
Se          8.260034512812169        2.852449828344452        8.250432057117706        0.018248669947403        0.010535871239640       -0.014696432233340
Se          8.287620328562737        2.868377795505784       11.589420470228838       -0.019552734053202       -0.011288690581473       -0.015750327889821
Mo         11.593148857340292        0.943876781586372        9.905033959598455       -0.000433745297020       -0.000250425559749        0.026637154867713
Se         11.592607125879654        2.860039379886147        8.235853107515222        0.003882367507408        0.002241488737058       -0.022068559620089
Se         11.593908343603736        2.860788243964089       11.574836209533599       -0.004566281253746       -0.002636153248573       -0.021190270387949
Mo         14.912587138033661        0.943876781586372        9.905904978809678        0.002545907487308        0.001469900333765        0.030100946593528
Se         14.925349693915182        2.867719220004615        8.244690765853486       -0.011825537161306       -0.006827567493988       -0.022127180798346
Se         14.900037025862197        2.853108403845621       11.583679178964616        0.012313789869688        0.007109360526314       -0.023225813669813
Mo         18.232020107634280        0.943876781586372        9.930049206457365        0.001048239227000        0.000605237954466        0.027932734329291
Se         18.254958717227410        2.873593288587620        8.274762173011693       -0.024885461501622       -0.014367587992150       -0.015480361937319
Se         18.209299252843959        2.847234335262616       11.613750586122821        0.025969953299387        0.014993651891523       -0.021064286276782
Mo         21.551447766142150        0.943876781586372        9.971502285381739        0.000205945455194        0.000118785019101        0.019962568080143
Se         21.578916737852186        2.876206346221290        8.318621176952432       -0.032394885858501       -0.018703241189330       -0.004379361970442
Se         21.524207171420418        2.844621277628946       11.657609590063561        0.032743527602874        0.018904558656767       -0.013834855179212
Mo         24.870886046835516        0.943876781586372       10.019997873294415        0.000961850122200        0.000555358530861        0.001492011830827
Se         24.896108426311731        2.874915750682709        8.365422526277424       -0.031896348732880       -0.018415534617092        0.006077062146033
Se         24.845886733254861        2.845917184260278       11.704410939388554        0.030960980985069        0.017875345601657       -0.000979590741935
Mo         28.190319016436138        0.943876781586372       10.063559456041078       -0.001793859476767       -0.001035640815883       -0.012862720639775
Se         28.207086136252180        2.870034856444208        8.403582727695953       -0.023350255118395       -0.013481328336651        0.014142616365065
Se         28.173764340330145        2.850798078498779       11.742571140807081        0.021954402588745        0.012675287135609        0.012150524746032
Mo         31.509757297129504        0.943876781586372       10.091389582058211       -0.001998005158945       -0.001153397393260       -0.023929524919335
Se         31.513947749310329        2.862774592653098        8.423669280481601       -0.008761809266056       -0.005058647729023        0.020143059602673
Se         31.505773977565987        2.858053031197138       11.762647071407228        0.007958596279755        0.004594820511582        0.021105681056165
Mo         34.829184955637373        0.943876781586372       10.096610386232799        0.002238660522318        0.001292494136407       -0.030373226539908
Se         34.819794943652965        2.854930108659337        8.420705690726342        0.008231904667859        0.004752686316188        0.023127340374758
Se         34.838798033517335        2.865897515190898       11.759688792744718       -0.008143972900473       -0.004702035561290        0.022981558760407
Mo         38.148612614145236        0.943876781586372       10.077931273026261        0.001932699109482        0.001115859270341       -0.028596079241153
Se         38.127994952084457        2.848445264409926        8.395430200322615        0.023030923963150        0.013296980157656        0.022115867939384
Se         38.169463964287083        2.872387670533061       11.734418613433743       -0.021973942981497       -0.012686599994571        0.017645231765953
Mo         41.468056205931362        0.943876781586372       10.039967582039534       -0.000118013687808       -0.000068134264203       -0.023984032330697
Se         41.441325476113761        2.844918698823022        8.354093965438771        0.031299338312205        0.018070749529182        0.016348623862651
Se         41.495004690551767        2.875908925027213       11.693077067457150       -0.030646792038443       -0.017693825637403        0.007561103553500
Mo         44.787483864439231        0.943876781586372        9.992125258535273        0.000884974103344        0.000510878426306       -0.007815899990576
Se         44.761294866082267        2.845226742202601        8.306920839621183        0.031269513502214        0.018053523130308        0.005010568078435
Se         44.813906550877249        2.875600881647634       11.645909252732313       -0.031743882247325       -0.018327345739275       -0.003165800736339
Mo         48.106922145132593        0.943876781586372        9.946232106070763       -0.000979076521073       -0.000565128727237        0.021782138600006
Se         48.087765033578435        2.849295039250144        8.265584604737340        0.034019823782131        0.019641437151881       -0.002212949479222
Se         48.126291700396813        2.871537895692843       11.604567706755718       -0.033690208209648       -0.019451175432975       -0.005170747876919
Mo         51.426355114733212        0.943876781586372        9.913632618762909       -0.008233704440876       -0.004753714757911       -0.005970104206756
Se         51.419015184550837        2.856109171250140        8.240309114333614        0.286571943905906        0.165452362092020        0.386956855015494
Se         51.433923421903906        2.864718452600096       11.579286905259240       -0.419759260907057       -0.242348178450497        0.502735996068032
