# total energy = -38122.77363041553 eV 

 CRYSTAL
 PRIMVEC
       26.555490215667398        0.000000000000000        0.000000000000000
       -3.319436276958425        5.749422964633285        0.000000000000000
        0.000000000000000        0.000000000000000       20.000028456517960
 PRIMCOORD
48 1
Mo          1.656961678594826        0.905582049589582       10.000008917160937       -0.223439763137267        0.367271966200782        0.000000000000000
Se          1.655307271554390        2.825180181966380        8.330515702733337       -0.030287351655969        0.055388528809162        0.006076033704309
Se          1.655307271554390        2.825180181966380       11.669499476039515       -0.030287351655969        0.055388528809162       -0.006076033704309
Mo         -0.002756459884386        3.780296187455246       10.000008917160937       -0.223483729020960        0.367261424673113        0.000000000000000
Se         -0.004410866924822        5.699894319832044        8.330515702733337       -0.030284523441229        0.055390585692610        0.006081175912928
Se         -0.004410866924822        5.699894319832044       11.669499476039515       -0.030284523441229        0.055390585692610       -0.006081175912928
Mo          4.933909171208183        0.979175279624261       10.000008917160937       -0.009368075662246        0.012739307632917        0.000000000000000
Se          4.924176584044141        2.912765499795694        8.330515702733337        0.047069720815640       -0.067860184483456       -0.001719811672652
Se          4.924176584044141        2.912765499795694       11.669499476039515        0.047069720815640       -0.067860184483456        0.001719811672652
Mo          3.274191032728970        3.853892073038947       10.000008917160937       -0.009380416962932        0.012757562473515        0.000000000000000
Se          3.264458445564928        5.787482293210380        8.330515702733337        0.047071520588657       -0.067850928507941       -0.001711584138862
Se          3.264458445564928        5.787482293210380       11.669499476039515        0.047071520588657       -0.067850928507941        0.001711584138862
Mo          8.231981556288103        1.016180355239793       10.000008917160937       -0.041167236652226        0.071522208351536        0.000000000000000
Se          8.224373408341314        2.946092640016357        8.330515702733337        0.091479120002198       -0.159760708481987       -0.001494582935137
Se          8.224373408341314        2.946092640016357       11.669499476039515        0.091479120002198       -0.159760708481987        0.001494582935137
Mo          6.572263417808891        3.890897148654479       10.000008917160937       -0.041154895351540        0.071536863646100        0.000000000000000
Se          6.564655269862103        5.820806777882021        8.330515702733337        0.091475263345734       -0.159754023610783       -0.001494840045567
Se          6.564655269862103        5.820806777882021       11.669499476039515        0.091475263345734       -0.159754023610783        0.001494840045567
Mo         11.573320801576410        0.978240526368669       10.000008917160937       -0.060815872896174        0.089092878092512        0.000000000000000
Se         11.575840917597878        2.890618220955828        8.330515702733337        0.047139397742429       -0.081926181940096        0.005185146061053
Se         11.575840917597878        2.890618220955828       11.669499476039515        0.047139397742429       -0.081926181940096       -0.005185146061053
Mo          9.913602663097198        3.852957319783355       10.000008917160937       -0.060836955951512        0.089112675595696        0.000000000000000
Se          9.916120123569643        5.765332358821492        8.330515702733337        0.047176678754917       -0.081914354860272        0.005208543110269
Se          9.916120123569643        5.765332358821492       11.669499476039515        0.047176678754917       -0.081914354860272       -0.005208543110269
Mo         14.935232585134795        0.904681818471271       10.000008917160937       -0.015213995530851        0.017813639098228        0.000000000000000
Se         14.945374126848158        2.803840190029070        8.330515702733337       -0.040690296802806        0.084631755005027       -0.001621852598459
Se         14.945374126848158        2.803840190029070       11.669499476039515       -0.040690296802806        0.084631755005027        0.001621852598459
Mo         13.275511791106561        3.779398611885957       10.000008917160937       -0.015161802113367        0.017859918975800        0.000000000000000
Se         13.285661299466989        5.678554327894735        8.330515702733337       -0.040780542564071        0.084645124747436       -0.001645506758107
Se         13.285661299466989        5.678554327894735       11.669499476039515       -0.040780542564071        0.084645124747436        0.001645506758107
Mo         18.273674626440574        0.871745043956778       10.000008917160937        0.046032537337171       -0.079549453116356        0.000000000000000
Se         18.281057052720527        2.775704648145570        8.330515702733337       -0.094219145864876        0.160223507257705       -0.001190935516180
Se         18.281057052720527        2.775704648145570       11.669499476039515       -0.094219145864876        0.160223507257705        0.001190935516180
Mo         16.613964454608425        3.746461837371464       10.000008917160937        0.045862330231880       -0.079553823993682        0.000000000000000
Se         16.621333603143274        5.650418786011234        8.330515702733337       -0.094187007061007        0.160239962325286       -0.001156739828863
Se         16.621333603143274        5.650418786011234       11.669499476039515       -0.094187007061007        0.160239962325286        0.001156739828863
Mo         21.568969307243936        0.913572596595476       10.000008917160937        0.060474944464728       -0.115796881672273        0.000000000000000
Se         21.566048203320211        2.835372179111153        8.330515702733337       -0.036851895179091        0.066431421818643        0.003711903291685
Se         21.566048203320211        2.835372179111153       11.669499476039515       -0.036851895179091        0.066431421818643       -0.003711903291685
Mo         19.909248513215701        3.788286734461140       10.000008917160937        0.060586787502193       -0.115786340144604        0.000000000000000
Se         19.906327409291979        5.710088972525838        8.330515702733337       -0.036832354786338        0.066422680063991        0.003689534684192
Se         19.906327409291979        5.710088972525838       11.669499476039515       -0.036832354786338        0.066422680063991       -0.003689534684192
Mo         24.846121277131953        0.986807327512244       10.000008917160937       -0.004651641916823       -0.006314117963372        0.000000000000000
Se         24.836040813046083        2.921000357311573        8.330515702733337        0.140532704903080       -0.235594658760624        0.001543691027449
Se         24.836040813046083        2.921000357311573       11.669499476039515        0.140532704903080       -0.235594658760624       -0.001543691027449
Mo         23.186411105299804        3.861521465377908       10.000008917160937       -0.004796395089450       -0.006259867662441        0.000000000000000
Se         23.176330641213937        5.795714495177237        8.330515702733337        0.140445287356556       -0.235566633723650        0.001569916291406
Se         23.176330641213937        5.795714495177237       11.669499476039515        0.140445287356556       -0.235566633723650       -0.001569916291406
