# total energy = -38122.85674653656 eV 

 CRYSTAL
 PRIMVEC
       53.110927513609894        0.000000000000000        0.000000000000000
       -1.659716484800309        2.874735173529163        0.000000000000000
        0.000000000000000        0.000000000000000       19.999981973800079
 PRIMCOORD
48 1
Mo          1.609075215416082        0.988516516161561        9.999996297992791        0.046767616059269       -0.094547732995636        0.000000000000000
Se          1.614619996248503        2.895644945691271        8.330507402529976        0.011452727036422       -0.020932645736133        0.002931316023308
Se          1.614619996248503        2.895644945691271       11.669490504548355        0.011452727036422       -0.020932645736133       -0.002931316023308
Mo          4.966264743386126        0.923126342206805        9.999996297992791       -0.014045685732595        0.014311280807771        0.000000000000000
Se          4.973769317443799        2.826860983468395        8.330507402529976       -0.004519744265743        0.017492765280397        0.001763263335484
Se          4.973769317443799        2.826860983468395       11.669490504548355       -0.004519744265743        0.017492765280397       -0.001763263335484
Mo          8.315891275278231        0.870828011884153        9.999996297992791       -0.030395852257832        0.054916988278792        0.000000000000000
Se          8.320692503125462        2.779247036952444        8.330507402529976       -0.025255957632627        0.048060367306107       -0.000482082058039
Se          8.320692503125462        2.779247036952444       11.669490504548355       -0.025255957632627        0.048060367306107        0.000482082058039
Mo         11.638919854671521        0.864614033365061        9.999996297992791       -0.031405782030620        0.049282670294863        0.000000000000000
Se         11.638048835460298        2.782842646745115        8.330507402529976       -0.029540188743616        0.048370699596268        0.001728553427305
Se         11.638048835460298        2.782842646745115       11.669490504548355       -0.029540188743616        0.048370699596268       -0.001728553427305
Mo         14.933066711682910        0.908403993100032        9.999996297992791       -0.014723171718159        0.010696822369417        0.000000000000000
Se         14.927150154357893        2.835374665148827        8.330507402529976       -0.010042219212208        0.021027776595586        0.003623971524299
Se         14.927150154357893        2.835374665148827       11.669490504548355       -0.010042219212208        0.021027776595586       -0.003623971524299
Mo         18.214296991122989        0.974574897689239        9.999996297992791        0.014468632391514       -0.035497180318393        0.000000000000000
Se         18.207137638094153        2.903707184487837        8.330507402529976        0.016682610312461       -0.019125673627387        0.001223074320049
Se         18.207137638094153        2.903707184487837       11.669490504548355        0.016682610312461       -0.019125673627387       -0.001223074320049
Mo         21.506707120804684        1.021376247014232        9.999996297992791        0.035392793483426       -0.054809773229084        0.000000000000000
Se         21.502888445116454        2.944730064899349        8.330507402529976        0.029907599549450       -0.049186510993686       -0.000439915947363
Se         21.502888445116454        2.944730064899349       11.669490504548355        0.029907599549450       -0.049186510993686        0.000439915947363
Mo         24.827345708459859        1.019278365377444        9.999996297992791        0.025212505969796       -0.046121754656712        0.000000000000000
Se         24.829347990427124        2.932551729220478        8.330507402529976        0.025728783715152       -0.047397793725538        0.002161527393032
Se         24.829347990427124        2.932551729220478       11.669490504548355        0.025728783715152       -0.047397793725538       -0.002161527393032
Mo         28.175458578917826        0.969609025966716        9.999996297992791       -0.004081113870535       -0.014216664169179        0.000000000000000
Se         28.182086822671526        2.874862639755195        8.330507402529976        0.010377234103741       -0.012868634179687        0.003538610861222
Se         28.182086822671526        2.874862639755195       11.669490504548355        0.010377234103741       -0.012868634179687       -0.003538610861222
Mo         31.532945528081946        0.903703676015078        9.999996297992791       -0.023455670395086        0.036233801703077        0.000000000000000
Se         31.540083636739773        2.808059715128577        8.330507402529976       -0.011540401693378        0.029561271798955        0.000726336967446
Se         31.540083636739773        2.808059715128577       11.669490504548355       -0.011540401693378        0.029561271798955       -0.000726336967446
Mo         34.875795105623311        0.863137549580183        9.999996297992791       -0.031647722946148        0.059902359534993        0.000000000000000
Se         34.879024250016144        2.774286476322672        8.330507402529976       -0.029295933834210        0.051666083989808       -0.000174063761756
Se         34.879024250016144        2.774286476322672       11.669490504548355       -0.029295933834210        0.051666083989808        0.000174063761756
Mo         38.189247784785906        0.873510113723591        9.999996297992791       -0.030265497269338        0.039356922107877        0.000000000000000
Se         38.186586927317471        2.794851027455942        8.330507402529976       -0.025856824709767        0.042395453180894        0.002630496819092
Se         38.186586927317471        2.794851027455942       11.669490504548355       -0.025856824709767        0.042395453180894       -0.002630496819092
Mo         41.477053197052165        0.928278102175625        9.999996297992791       -0.010498847337582       -0.005995558139420        0.000000000000000
Se         41.470265620515924        2.856778368936811        8.330507402529976       -0.001449845720151        0.009136933384818        0.003381002167047
Se         41.470265620515924        2.856778368936811       11.669490504548355       -0.001449845720151        0.009136933384818       -0.003381002167047
Mo         44.759191673352724        0.992882234403180        9.999996297992791        0.024330102970761       -0.039949304540796        0.000000000000000
Se         44.752616540526539        2.921000102486268        8.330507402529976        0.022991843177645       -0.031090050421408        0.000261738418711
Se         44.752616540526539        2.921000102486268       11.669490504548355        0.022991843177645       -0.031090050421408       -0.000261738418711
Mo         48.059175421297859        1.026570495725063        9.999996297992791        0.029283078312662       -0.047427104314667        0.000000000000000
Se         48.057045673104568        2.946997901504180        8.330507402529976        0.029080218182639       -0.050330138190570       -0.000013883963272
Se         48.057045673104568        2.946997901504180       11.669490504548355        0.029080218182639       -0.050330138190570        0.000013883963272
Mo         51.389283687328714        1.008082581857575        9.999996297992791        0.016062717063430       -0.032165800464520        0.000000000000000
Se         51.393001452254673        2.918365800481593        8.330507402529976       -0.009218694501861        0.016235238162601       -0.000305704302404
Se         51.393001452254673        2.918365800481593       11.669490504548355       -0.009218694501861        0.016235238162601        0.000305704302404
