# total energy = -38122.86942936013 eV 

 CRYSTAL
 PRIMVEC
       53.110927513609894        0.000000000000000        0.000000000000000
       -1.659716484800309        2.874735173529163        0.000000000000000
        0.000000000000000        0.000000000000000       19.999981973800079
 PRIMCOORD
48 1
Mo          1.676908492036465        0.871024522315954        9.999996297992791       -0.331193716308432        0.581565797088147        0.000000000000000
Se          1.676095894845506        2.789168158211986        8.330507402529976        0.040668442416175       -0.037664364140906        0.008287440520945
Se          1.676095894845506        2.789168158211986       11.669490504548355        0.040668442416175       -0.037664364140906       -0.008287440520945
Mo          4.990568303816354        0.881030621059518        9.999996297992791       -0.016665898134449        0.054574774295192        0.000000000000000
Se          4.989474218709574        2.799652255303172        8.330507402529976       -0.003238820098730        0.004589935413394       -0.001226673866082
Se          4.989474218709574        2.799652255303172       11.669490504548355       -0.003238820098730        0.004589935413394        0.001226673866082
Mo          8.302942831150414        0.893256756573151        9.999996297992791        0.000273051277673       -0.003745070537278        0.000000000000000
Se          8.301609746869822        2.812292656051412        8.330507402529976       -0.001992862950326        0.003142403687122       -0.000368439247557
Se          8.301609746869822        2.812292656051412       11.669490504548355       -0.001992862950326        0.003142403687122        0.000368439247557
Mo         11.614276384305207        0.907278041436744        9.999996297992791        0.003325209203530       -0.001259069780383        0.000000000000000
Se         11.612768033963819        2.826637917572838        8.330507402529976       -0.001449331499289        0.002088765141072       -0.000335529112395
Se         11.612768033963819        2.826637917572838       11.669490504548355       -0.001449331499289        0.002088765141072        0.000335529112395
Mo         14.924866384474809        0.922595232931669        9.999996297992791        0.004042290195461       -0.002225033669477        0.000000000000000
Se         14.923230567907391        2.842178174963320        8.330507402529976       -0.001103260859224        0.001596655776225       -0.000303133198095
Se         14.923230567907391        2.842178174963320       11.669490504548355       -0.001103260859224        0.001596655776225        0.000303133198095
Mo         18.235026186131549        0.938666599597287        9.999996297992791       -0.000554844309999       -0.005398033497883        0.000000000000000
Se         18.233316014265611        2.858366385669468        8.330507402529976       -0.000708082126848        0.001085777349919       -0.000261481308280
Se         18.233316014265611        2.858366385669468       11.669490504548355       -0.000708082126848        0.001085777349919        0.000261481308280
Mo         21.545079765933266        0.954918543416452        9.999996297992791        0.000179977301668       -0.004194499570586        0.000000000000000
Se         21.543358971881823        2.874623640581384        8.330507402529976       -0.000331672455931        0.000482339168470       -0.000211858995106
Se         21.543358971881823        2.874623640581384       11.669490504548355       -0.000331672455931        0.000482339168470        0.000211858995106
Mo         24.855345789445035        0.970782777464767        9.999996297992791        0.002327620731428       -0.002816644771103        0.000000000000000
Se         24.853699350692114        2.890381652774672        8.330507402529976       -0.000115185473067       -0.000156837362882       -0.000263023970866
Se         24.853699350692114        2.890381652774672       11.669490504548355       -0.000115185473067       -0.000156837362882        0.000263023970866
Mo         28.166174788788446        0.985696325910589        9.999996297992791        0.001668646696893       -0.004098597379840        0.000000000000000
Se         28.164645194076058        2.905077446417688        8.330507402529976        0.000278964817585       -0.000756161777436       -0.000380780548243
Se         28.164645194076058        2.905077446417688       11.669490504548355        0.000278964817585       -0.000756161777436        0.000380780548243
Mo         31.477853562972079        0.999122768386029        9.999996297992791        0.003685678027728       -0.003643511917051        0.000000000000000
Se         31.476504545413235        2.918185223328047        8.330507402529976        0.000654088936347       -0.001360371290178       -0.000423460879782
Se         31.476504545413235        2.918185223328047       11.669490504548355        0.000654088936347       -0.001360371290178        0.000423460879782
Mo         34.790663599911753        1.010600039821720        9.999996297992791        0.005176404306400       -0.001337231351393        0.000000000000000
Se         34.789553581526718        2.929253540621883        8.330507402529976        0.000845893317839       -0.001982064312226       -0.000481824947608
Se         34.789553581526718        2.929253540621883       11.669490504548355        0.000845893317839       -0.001982064312226        0.000481824947608
Mo         38.104833276595770        1.019703252797553        9.999996297992791        0.000315988719643       -0.001850937992439        0.000000000000000
Se         38.104004746126556        2.937878755250094        8.330507402529976        0.001142341644729       -0.002464660591127       -0.000484138941487
Se         38.104004746126556        2.937878755250094       11.669490504548355        0.001142341644729       -0.002464660591127        0.000484138941487
Mo         41.420564414548693        1.026129675026700        9.999996297992791        0.000599324414554       -0.002754681157243        0.000000000000000
Se         41.420043927459055        2.943763446018602        8.330507402529976        0.001246214258835       -0.002678062248819       -0.000514477972339
Se         41.420043927459055        2.943763446018602       11.669490504548355        0.001246214258835       -0.002678062248819        0.000514477972339
Mo         44.737973857811042        1.029634996242598        9.999996297992791        0.005959562679087       -0.003408255872728        0.000000000000000
Se         44.737782658471993        2.946695169217353        8.330507402529976        0.000774416618034       -0.001744751384455       -0.000502908002946
Se         44.737782658471993        2.946695169217353       11.669490504548355        0.000774416618034       -0.001744751384455        0.000502908002946
Mo         48.057135961681340        1.030107683497469        9.999996297992791        0.016736603502961       -0.031363873030374        0.000000000000000
Se         48.057295294463877        2.946567702991320        8.330507402529976        0.005713765107094       -0.012685571552847       -0.001050810331310
Se         48.057295294463877        2.946567702991320       11.669490504548355        0.005713765107094       -0.012685571552847        0.001050810331310
Mo         51.378061348345092        1.027521181327557        9.999996297992791       -0.016582594354820       -0.042722497649067        0.000000000000000
Se         51.378565902156467        2.943386358433255        8.330507402529976        0.117968693482543       -0.214154477033788        0.017759903018159
Se         51.378565902156467        2.943386358433255       11.669490504548355        0.117968693482543       -0.214154477033788       -0.017759903018159
