# total energy = -38122.92172626207 eV 

 CRYSTAL
 PRIMVEC
       53.110927513609894        0.000000000000000        0.000000000000000
       -1.659716484800309        2.874735173529163        0.000000000000000
        0.000000000000000        0.000000000000000       19.999981973800079
 PRIMCOORD
48 1
Mo          1.634849948538437        0.943876781586372        9.952674461578164        0.002320935860223        0.001340059566133        0.194102434523673
Se          1.617811962992071        2.850511279490205        8.273599043699143        0.010628688105214        0.006136454655583       -0.013065323659367
Se          1.652116311073112        2.870316344360031       11.612576834624770       -0.012094217561653       -0.006982605083853       -0.015164373217676
Mo          4.954282918139056        0.943876781586372        9.924212315523620        0.000811440520091        0.000468455205198        0.016955404479703
Se          4.943326133792998        2.854021911798855        8.248759062901028        0.015468791967926        0.008930730819193       -0.012145896758275
Se          4.965462768380671        2.866805712051381       11.587747476012158       -0.016305686420682       -0.009414098429387       -0.012038938818998
Mo          8.273715887739673        0.943876781586372        9.906388288250053       -0.001760949341605       -0.001016614643993        0.012624893491142
Se          8.270396454770074        2.858430118782485        8.235401664631356        0.006432131651180        0.003713445954271       -0.013909160093758
Se          8.277263697697583        2.862397505067751       11.574390077742486       -0.006834509475624       -0.003945873783854       -0.012715910583700
Mo         11.593148857340292        0.943876781586372        9.901714526628856        0.000376409670917        0.000217258314156        0.016068373492911
Se         11.597950085187522        2.863119813681936        8.235401664631356       -0.004218410840665       -0.002435607112429       -0.014744768994359
Se         11.588576006481370        2.857707810168299       11.574390077742486        0.004015807821073        0.002318364755914       -0.013867251093513
Mo         14.912587138033661        0.943876781586372        9.910844295068445        0.002182096227508        0.001259841111675        0.015482161710336
Se         14.924839829011052        2.867427109903290        8.248759062901028       -0.013955182860899       -0.008057069574811       -0.013199278193894
Se         14.900546890766327        2.853400513946946       11.587747476012158        0.014180411598415        0.008186910342442       -0.013617853975487
Mo         18.232020107634280        0.943876781586372        9.932492309122992        0.000188204835458        0.000108757712294        0.014420809851357
Se         18.250030023154146        2.870751853965642        8.273599043699143       -0.021805792759653       -0.012589669362101       -0.009530569454609
Se         18.214227946917219        2.850081080977345       11.612576834624770        0.022280675725626        0.012863749081499       -0.011828365376046
Mo         21.551447766142150        0.943876781586372        9.963625934831470        0.000114671252206        0.000066077380755        0.012015541769781
Se         21.572708070425843        2.872621358614121        8.306432219088057       -0.026959314237699       -0.015564951269103       -0.004005266293404
Se         21.530415838846761        2.848206265236115       11.645410010013684        0.027220795545979        0.015715875092073       -0.008675163050824
Mo         24.870886046835516        0.943876781586372        9.999868831766758        0.001939383980687        0.001119715926805        0.004441582694733
Se         24.892406594664035        2.872775380303910        8.342643249466837       -0.028198843625329       -0.016280489598448        0.001685615985335
Se         24.849588564902557        2.848052243546325       11.681626351485214        0.027957416930663        0.016141135744871       -0.003288442411904
Mo         28.190319016436138        0.943876781586372       10.036127661980299       -0.000945137944187       -0.000545588334485       -0.005179489631572
Se         28.209104351497700        2.871197985756756        8.377149419072429       -0.025416651651974       -0.014674320736278        0.006039781133544
Se         28.171756747270130        2.849629638093480       11.716127209998056        0.024967479729097        0.014415153421876        0.003324952093099
Mo         31.509757297129504        0.943876781586372       10.067309087523540       -0.001206362142037       -0.000696512157455       -0.008206964956057
Se         31.523183739604949        2.868101618682713        8.405107011315593       -0.019307707812503       -0.011147279844449        0.009311254257005
Se         31.496548609456870        2.852726005167523       11.744090113333971        0.018664931735117        0.010776012382151        0.009069570451908
Mo         34.829184955637373        0.943876781586372       10.089036767969358        0.001087577122936        0.000627863672390       -0.011978003646862
Se         34.835383000878210        2.863927099780143        8.422585817560321       -0.010202141900261       -0.005890399973160        0.012160294942408
Se         34.823204665199341        2.856900524070092       11.761568919578702        0.009452150773168        0.005457168897002        0.013162511402267
Mo         38.148612614145236        0.943876781586372       10.098267447171223        0.000192318602354        0.000111071706172       -0.014089651616288
Se         38.146737798404011        2.859263960344448        8.427132112955487        0.000410862468665        0.000237312927771        0.013824827872405
Se         38.150726429060285        2.861568974598539       11.766120526066617       -0.000644318739971       -0.000372038793591        0.014985424357732
Mo         41.468056205931362        0.943876781586372       10.093689285219549       -0.000849749974304       -0.000490566702261       -0.015345378961068
Se         41.458363461660127        2.854754842598543        8.418108566370924        0.011106399285927        0.006412334147997        0.013930243149096
Se         41.477966705005400        2.866072781251693       11.757096979482055       -0.010853659732299       -0.006266295423215        0.014021774462516
Mo         44.787483864439231        0.943876781586372       10.075960857615508        0.001901331636906        0.001097861540174       -0.014798762184860
Se         44.771364697938850        2.851042388765341        8.396784528974210        0.020114263234406        0.011612906834907        0.012609466865285
Se         44.803826096835166        2.869785235084894       11.735767630992589       -0.019773849023823       -0.011416474465658        0.010955475462957
Mo         48.106922145132593        0.943876781586372       10.047557133581229        0.001244928706680        0.000718623654517       -0.016064773946878
Se         48.086655015193401        2.848647085934477        8.366150145984360        0.024288193970516        0.014022802904240        0.008843313272668
Se         48.127401718781840        2.872180537915758       11.705127936909987       -0.023922582937699       -0.013811715240427        0.004882527083820
Mo         51.426355114733212        0.943876781586372       10.012466743772986       -0.001612082402083       -0.000930739760054       -0.002245859614385
Se         51.404802700348192        2.847908844042038        8.330507402529976       -0.045763856936824       -0.026421953437004       -0.084038344130384
Se         51.448135906106543        2.872924090900949       11.669490504548355        0.043083223583696        0.024874148642660       -0.091174958362379
