# total energy = -38122.8460147701 eV 

 CRYSTAL
 PRIMVEC
       53.110927513609894        0.000000000000000        0.000000000000000
       -1.659716484800309        2.874735173529163        0.000000000000000
        0.000000000000000        0.000000000000000       19.999981973800079
 PRIMCOORD
48 1
Mo          1.634849948538437        0.943876781586372       10.079960110457282        0.010605033945566        0.006122827802742       -0.714338394964169
Se          1.596833146624195        2.838401988017102        8.380946850389652        0.140144211041909        0.080912138400413        0.116829180052554
Se          1.673089816348236        2.882425635833134       11.719929952408030       -0.109378119763503       -0.063149664277944        0.087179462265351
Mo          4.954282918139056        0.943876781586372        9.993840741493964        0.007083135262356        0.004089341404326       -0.080407430624450
Se          4.915979317216240        2.838232033049059        8.293972395493364        0.034555127699377        0.019950483889888        0.040181989480809
Se          4.992814896050180        2.882595590801177       11.632960808604494       -0.040388706267296       -0.023318373424957        0.019642722704036
Mo          8.273715887739673        0.943876781586372        9.914105306017781       -0.009877154315535       -0.005702709358563        0.103080456867712
Se          8.274942750165238        2.861059109694408        8.244866031914281        0.009353934588543        0.005400604602192       -0.028340254362353
Se          8.272717402302419        2.859773825248579       11.583849133932658       -0.010314499158588       -0.005954934691329       -0.032477161196406
Mo         11.593148857340292        0.943876781586372        9.923394407239911        0.007943426764329        0.004586078756929        0.149328966966884
Se         11.632748364894441        2.883211677560335        8.284529272581445       -0.022951991060847       -0.013251214500947       -0.039129122266052
Se         11.553767104588950        2.837615946289901       11.623507063507072        0.033361363968457        0.019261170824500       -0.063582638243671
Mo         14.912587138033661        0.943876781586372       10.012089656187639       -0.002489343192498       -0.001437247309034        0.038167015033421
Se         14.949626698881653        2.881740504868208        8.371848948506571       -0.040052920044470       -0.023124512160017       -0.009052086942603
Se         14.875760020895726        2.839087118982027       11.710826739432198        0.033761942019884        0.019492313101928       -0.028468295356969
Mo         18.232020107634280        0.943876781586372       10.088250726242157       -0.008668478179620       -0.005004654538523       -0.109804923078887
Se         18.228227987409806        2.858159253052165        8.416318728113716       -0.007679374351739       -0.004433869381805        0.035260638721916
Se         18.236029982661556        2.862668370798071       11.755296519039343        0.007834154831173        0.004523086701346        0.030945554359212
Mo         21.551447766142150        0.943876781586372       10.072938845839982        0.007819499536609        0.004514602057124       -0.146915471351517
Se         21.510865706428998        2.836920193139473        8.371848948506571        0.034726877467255        0.020049471405806        0.063737932943968
Se         21.592258202843603        2.883907430710763       11.710826739432198       -0.024855379581201       -0.014350361593276        0.038184241432295
Mo         24.870886046835516        0.943876781586372        9.982028871214936       -0.003513928259851       -0.002028858410659       -0.028549542253150
Se         24.835689435172249        2.840027182399019        8.284529272581445        0.032644540086957        0.018847223030664        0.024701113322628
Se         24.906305724394343        2.880800441451217       11.623507063507072       -0.039718419373799       -0.022931422226371        0.006909328611031
Mo         28.190319016436138        0.943876781586372        9.909744898868913       -0.007186236545169       -0.004148991024307        0.116026481287115
Se         28.197106592972379        2.864267009716230        8.244866031914281        0.005995815249851        0.003461734842367       -0.033002437806845
Se         28.183754505795456        2.856560614134005       11.583849133932658       -0.004647528149927       -0.002683204457438       -0.037992437050804
Mo         31.509757297129504        0.943876781586372        9.931005203152610        0.007486541528523        0.004322283454770        0.143966671818904
Se         31.551603396917482        2.884512895284419        8.293972395493364       -0.026660809027361       -0.015392687280364       -0.036923371878896
Se         31.468123641051587        2.836314728565818       11.632960808604494        0.035900072363699        0.020726957391370       -0.063564126292643
Mo         34.829184955637373        0.943876781586372       10.023779371333385       -0.004798194862467       -0.002770364893531        0.018915357294867
Se         34.862836039309997        2.879780711642955        8.380946850389652       -0.039068701314778       -0.022556298107609       -0.004558310830386
Se         34.795756937860311        2.841052223300031       11.719929952408030        0.031409124466222        0.018133998695197       -0.020724386287060
Mo         38.148612614145236        0.943876781586372       10.091910069147843       -0.005535330468012       -0.003195882656760       -0.122143652660377
Se         38.139307579644857        2.854972597401348        8.415644219334293       -0.001615167727254       -0.000932539533071        0.040753288858389
Se         38.158156647819432        2.865855026448887       11.754627321352672        0.004134335729743        0.002387013240978        0.035024868456731
Mo         41.468056205931362        0.943876781586372       10.064770385188389        0.007179294563533        0.004145134367843       -0.140985990592853
Se         41.425546219549467        2.835810174754438        8.362097782215072        0.036512766520662        0.021080741344363        0.063150178498806
Se         41.510783947116060        2.885022760188549       11.701080884233450       -0.028032236066070       -0.016184587407703        0.035747605878143
Mo         44.787483864439231        0.943876781586372        9.970498488851732       -0.006220272656074       -0.003591318499568       -0.010309871170831
Se         44.755951906774399        2.842146308406812        8.275808458283709        0.029457399184849        0.017007083676325        0.017134353339647
Se         44.819244199092367        2.878681315443424       11.614786249209336       -0.037361488053242       -0.021570536715330        0.002474173677072
Mo         48.106922145132593        0.943876781586372        9.906807864577409       -0.004066715686402       -0.002347932455473        0.136558034750960
Se         48.119164213924485        2.867421798810538        8.246215049473127        0.008188453005028        0.004727489493954       -0.032175827771328
Se         48.094892520050763        2.853411136132448       11.585198151491504       -0.003410055645745       -0.001968951680247       -0.038480946869617
Mo         51.426355114733212        0.943876781586372        9.939704773079340       -0.004181129828177       -0.002414009836229        0.118803531051851
Se         51.469794542346598        2.885431714330404        8.303989116422432        0.002655950751756        0.001533406610211        0.179491877174272
Se         51.383133441922638        2.835395909519832       11.642977529533560       -0.036079792554936       -0.020830572895044        0.159731140782428
