# total energy = -38122.393917423746 eV 

 CRYSTAL
 PRIMVEC
       26.555490215667398        0.000000000000000        0.000000000000000
       -3.319436276958425        5.749422964633285        0.000000000000000
        0.000000000000000        0.000000000000000       20.000028456517960
 PRIMCOORD
48 1
Mo          1.654494673553791        0.916589300283976       10.000008917160937        1.098632614356702       -0.204690499180796        0.000000000000000
Se          1.718071172679120        2.814478319409466        8.330890135145378       -0.255442812698993        0.124092806837440       -0.026947744268306
Se          1.718071172679120        2.814478319409466       11.669130354725517       -0.255442812698993        0.124092806837440        0.026947744268306
Mo          0.032089654376612        3.780259009768944       10.000008917160937        0.170105289560997       -0.185638616247093        0.000000000000000
Se          0.049640177860147        5.688998602196556        8.330860924106142       -0.333270140148818        0.101416181048145        0.085772296876739
Se          0.049640177860147        5.688998602196556       11.669159565764755       -0.333270140148818        0.101416181048145       -0.085772296876739
Mo          5.011244069814249        0.905544871903280       10.000008917160937       -0.226006496569482        0.241498942697056        0.000000000000000
Se          5.028794593297784        2.814284464330892        8.330860924106142       -0.264753295624705        0.187142455157744       -0.015350264059256
Se          5.028794593297784        2.814284464330892       11.669159565764755       -0.264753295624705        0.187142455157744        0.015350264059256
Mo          3.352906816826252        3.793398666327656       10.000008917160937        0.100960324254063       -0.239558273164214        0.000000000000000
Se          3.313426769522619        5.717912219943375        8.330613958047135        0.346978496996001       -0.169736336092578       -0.051731904260132
Se          3.313426769522619        5.717912219943375       11.669401220725717        0.346978496996001       -0.169736336092578        0.051731904260132
Mo          8.332061232263889        0.918684528461992       10.000008917160937       -1.507970932386755        0.591748655706086        0.000000000000000
Se          8.292581184960255        2.843195426528689        8.330613958047135       -0.092079472858476        0.154601273464030       -0.001385825222843
Se          8.292581184960255        2.843195426528689       11.669401220725717       -0.092079472858476        0.154601273464030        0.001385825222843
Mo          6.636920725385997        3.822431783780445       10.000008917160937        0.090515984327844       -0.140841494530656        0.000000000000000
Se          6.565388201392055        5.757689688737423        8.330305914360633        0.877617145472902       -0.371931578540964       -0.267344454547861
Se          6.565388201392055        5.757689688737423       11.669709264412219        0.877617145472902       -0.371931578540964        0.267344454547861
Mo         11.616069829725591        0.947717645914781       10.000008917160937       -1.775670713550195        0.544216650335590        0.000000000000000
Se         11.544539961280671        2.882972895322737        8.330305914360633        0.143557609123256        0.024626551297652        0.001127686350165
Se         11.544539961280671        2.882972895322737       11.669709264412219        0.143557609123256        0.024626551297652       -0.001127686350165
Mo          9.906477825072335        3.849040384976544       10.000008917160937        0.028074402176747        0.044273901989445        0.000000000000000
Se          9.848092924284169        5.783236070324895        8.330127992576189        0.839668931416222       -0.325290975034586       -0.282871867694045
Se          9.848092924284169        5.783236070324895       11.669889841745684        0.839668931416222       -0.325290975034586        0.282871867694045
Mo         14.885632240509972        0.974326247110880       10.000008917160937       -0.906556210028947        0.142273085410209        0.000000000000000
Se         14.827252650819849        2.908519276910209        8.330127992576189        0.286792030434803       -0.124901676253222        0.003349120473609
Se         14.827252650819849        2.908519276910209       11.669889841745684        0.286792030434803       -0.124901676253222       -0.003349120473609
Mo         13.193051682888871        3.856438744550629       10.000008917160937       -0.065774247557125        0.201494616524036        0.000000000000000
Se         13.184721225608216        5.778432182144881        8.330197036850748        0.246555533542631       -0.066062982571086       -0.102900479566044
Se         13.184721225608216        5.778432182144881       11.669820797471125        0.246555533542631       -0.066062982571086        0.102900479566044
Mo         18.172206098326509        0.981724606684965       10.000008917160937        0.381439265167218       -0.276072582347462        0.000000000000000
Se         18.163875641045852        2.903718044279216        8.330197036850748        0.246711342463790       -0.185594650363400        0.007728482444051
Se         18.163875641045852        2.903718044279216       11.669820797471125        0.246711342463790       -0.185594650363400       -0.007728482444051
Mo         16.517374170046978        3.839958407322786       10.000008917160937       -0.118873722199502        0.236346706771165        0.000000000000000
Se         16.564414565415010        5.746313316729031        8.330465247301927       -0.439566534286904        0.180785913973264        0.022793096814517
Se         16.564414565415010        5.746313316729031       11.669549931470925       -0.439566534286904        0.180785913973264       -0.022793096814517
Mo         21.496528585484615        0.965244269457122       10.000008917160937        1.345673315282543       -0.472414191614315        0.000000000000000
Se         21.543568980852648        2.871596523314345        8.330465247301927        0.055661580086835       -0.116522961529288       -0.000983704508831
Se         21.543568980852648        2.871596523314345       11.669549931470925        0.055661580086835       -0.116522961529288        0.000983704508831
Mo         19.876356883034575        3.809995847712448       10.000008917160937       -0.084808389871092        0.128888944816459        0.000000000000000
Se         19.949177348303976        5.707138657562878        8.330765324341364       -0.792060307137302        0.277855128965267        0.059378368476709
Se         19.949177348303976        5.707138657562878       11.669249854431488       -0.792060307137302        0.277855128965267       -0.059378368476709
Mo         24.855511298472212        0.935281709846784       10.000008917160937        1.518303172165079       -0.407450356135558        0.000000000000000
Se         24.928331763741614        2.832424519697214        8.330765324341364       -0.188963825450623        0.018973207141831       -0.039337895935987
Se         24.928331763741614        2.832424519697214       11.669249854431488       -0.188963825450623        0.018973207141831        0.039337895935987
Mo         23.245058905441105        3.785455919204150       10.000008917160937       -0.001546776352620       -0.045159904534513        0.000000000000000
Se         23.297771553519208        5.685626054939166        8.330908723988530       -0.700654720718357        0.211089206475952        0.060859067448574
Se         23.297771553519208        5.685626054939166       11.669109110333345       -0.700654720718357        0.211089206475952       -0.060859067448574
