# total energy = -38122.845537346155 eV 

 CRYSTAL
 PRIMVEC
       53.110927513609894        0.000000000000000        0.000000000000000
       -1.659716484800309        2.874735173529163        0.000000000000000
        0.000000000000000        0.000000000000000       19.999981973800079
 PRIMCOORD
48 1
Mo          1.560908915253989        0.978935304838106        9.999996297992791        0.216943096767917       -0.105372082138806        0.000000000000000
Se          1.582758750833088        2.887487107225180        8.330294958819922       -0.131209880676683        0.051045419409484        0.033013236444945
Se          1.582758750833088        2.887487107225180       11.669708259351161       -0.131209880676683        0.051045419409484       -0.033013236444945
Mo          4.900120394260676        0.963623424435932        9.999996297992791        0.368730039454723       -0.137064028079078        0.000000000000000
Se          4.931280575432911        2.870093278464473        8.330417113953203       -0.184960358930236        0.069117968711683        0.042788575029823
Se          4.931280575432911        2.870093278464473       11.669580793125128       -0.184960358930236        0.069117968711683       -0.042788575029823
Mo          8.246942669180063        0.945544464710300        9.999996297992791        0.429346394656476       -0.152306819978195        0.000000000000000
Se          8.283047477703816        2.851334498866666        8.330555202364739       -0.215635433116084        0.074417271804080        0.048333932804642
Se          8.283047477703816        2.851334498866666       11.669448015806344       -0.215635433116084        0.074417271804080       -0.048333932804642
Mo         11.597519886674663        0.927226505810856        9.999996297992791        0.427815559150575       -0.138288130840851        0.000000000000000
Se         11.633529095528889        2.833850381529186        8.330682668590772       -0.217103019455970        0.069391534210219        0.047888874648660
Se         11.633529095528889        2.833850381529186       11.669320549580311       -0.217103019455970        0.069391534210219       -0.047888874648660
Mo         14.947486328502855        0.911245427722010        9.999996297992791        0.368241529635910       -0.106823213411111        0.000000000000000
Se         14.978338466295510        2.820099962395912        8.330788890445799       -0.188917545573051        0.054871222622082        0.041600467728383
Se         14.978338466295510        2.820099962395912       11.669209016632532       -0.188917545573051        0.054871222622082       -0.041600467728383
Mo         18.292545320628790        0.899853133770341        9.999996297992791        0.258943371216434       -0.062435668611185        0.000000000000000
Se         18.313938402231273        2.812011168135589        8.330852623558815       -0.134750548421352        0.032543238577161        0.029560500467662
Se         18.313938402231273        2.812011168135589       11.669150594612269       -0.134750548421352        0.032543238577161       -0.029560500467662
Mo         21.629106564352547        0.894637640688505        9.999996297992791        0.108822761232642       -0.004886383740284        0.000000000000000
Se         21.638045133453090        2.810720572597009        8.330868556837070       -0.060896348461062        0.005364609141859        0.012099873991134
Se         21.638045133453090        2.810720572597009       11.669129350241263       -0.060896348461062        0.005364609141859       -0.012099873991134
Mo         24.954769445750511        0.896337190368940        9.999996297992791       -0.062558824507612        0.050138848029940        0.000000000000000
Se         24.950016017738047        2.816408752933716        8.330836690280561        0.023136596350272       -0.023053292570643       -0.009311254257005
Se         24.950016017738047        2.816408752933716       11.669155905705018        0.023136596350272       -0.023053292570643        0.009311254257005
Mo         28.268647012333208        0.904718094730588        9.999996297992791       -0.221841050477594        0.101199179844420        0.000000000000000
Se         28.250876095987152        2.828273734140257        8.330757023889291        0.105910214270793       -0.048816529083543       -0.031837727554623
Se         28.250876095987152        2.828273734140257       11.669240883189042        0.105910214270793       -0.048816529083543        0.031837727554623
Mo         31.571514683642331        0.918595980089894        9.999996297992791       -0.354219755173394        0.138320526755151        0.000000000000000
Se         31.543254359112336        2.844658455278206        8.330640179848761        0.174970590245943       -0.068110867153636       -0.051449854117375
Se         31.543254359112336        2.844658455278206       11.669357727229571        0.174970590245943       -0.068110867153636        0.051449854117375
Mo         34.865714651581236        0.936021675407109        9.999996297992791       -0.439468575212710        0.153917359717692        0.000000000000000
Se         34.830937616245322        2.863252591000720        8.330507402529976        0.219876469674673       -0.077929143180483       -0.064229013867090
Se         34.830937616245322        2.863252591000720       11.669490504548355        0.219876469674673       -0.077929143180483        0.064229013867090
Mo         38.154784103922317        0.954552078016608        9.999996297992791       -0.460413562249529        0.148681305791311        0.000000000000000
Se         38.118392496389994        2.881453705859635        8.330374625211194        0.233038723966509       -0.076663131418464       -0.067092966957488
Se         38.118392496389994        2.881453705859635       11.669628592959890        0.233038723966509       -0.076663131418464        0.067092966957488
Mo         41.442982537052188        0.971584752470223        9.999996297992791       -0.413347440979922        0.124339632851156        0.000000000000000
Se         41.410106872921261        2.896691230963289        8.330257781170662        0.212483773453448       -0.064340085573262       -0.059453701832978
Se         41.410106872921261        2.896691230963289       11.669740125907669        0.212483773453448       -0.064340085573262        0.059453701832978
Mo         44.734712846861704        0.984724395937090        9.999996297992791       -0.306933033154028        0.083142828499371        0.000000000000000
Se         44.709973776825869        2.906840729211140        8.330178114779393        0.161357107147782       -0.042868536373849       -0.043057769651032
Se         44.709973776825869        2.906840729211140       11.669819792298938        0.161357107147782       -0.042868536373849        0.043057769651032
Mo         48.033841508873870        0.992122748139736        9.999996297992791       -0.158038068594594        0.029277936104043        0.000000000000000
Se         48.020754976334516        2.910468205560320        8.330146248222883        0.088081662767570       -0.016215440659417       -0.021422183996670
Se         48.020754976334516        2.910468205560320       11.669856969948199        0.088081662767570       -0.016215440659417        0.021422183996670
Mo         51.343241824267167        0.992749457084396        9.999996297992791        0.011564570073887       -0.020330493106838        0.000000000000000
Se         51.343645467316271        2.907063795106697        8.330162181501139        0.027824747948290        0.010490362693361        0.009463977852992
Se         51.343645467316271        2.907063795106697       11.669841036669945        0.027824747948290        0.010490362693361       -0.009463977852992
