# total energy = -38122.76620469765 eV 

 CRYSTAL
 PRIMVEC
       26.555490215667398        0.000000000000000        0.000000000000000
       -3.319436276958425        5.749422964633285        0.000000000000000
        0.000000000000000        0.000000000000000       20.000028456517960
 PRIMCOORD
48 1
Mo          1.662355098657628        0.923568083112653       10.000008917160937       -0.924307628402885        0.610281432679693        0.000000000000000
Se          1.628834103358391        2.849805088043368        8.330515702733337       -0.048284567601899        0.011286376587595       -0.006326459264058
Se          1.628834103358391        2.849805088043368       11.669499476039515       -0.048284567601899        0.011286376587595        0.006326459264058
Mo         -0.026929922627708        3.815017490912231       10.000008917160937       -0.316241459196293        0.059873820277158        0.000000000000000
Se         -0.062084080575209        5.743527645805408        8.331423900498713        0.490692429261277       -0.245990661925825       -0.166000264420383
Se         -0.062084080575209        5.743527645805408       11.668591278274139        0.490692429261277       -0.245990661925825        0.166000264420383
Mo          4.952224492809929        0.940300697497545       10.000008917160937       -0.934755310764707        0.383176560349175        0.000000000000000
Se          4.917072990411450        2.868810852390721        8.331423900498713        0.014963055750239        0.032623714142050       -0.005303416859291
Se          4.917072990411450        2.868810852390721       11.668591278274139        0.014963055750239        0.032623714142050        0.005303416859291
Mo          3.263231581916965        3.832254659611221       10.000008917160937        0.035013298487338        0.017672999692496        0.000000000000000
Se          3.231396860246423        5.761354346387185        8.332207287460074        0.440323467395633       -0.213717132190735       -0.176329418873535
Se          3.231396860246423        5.761354346387185       11.667810546861798        0.440323467395633       -0.213717132190735        0.176329418873535
Mo          8.242385997354601        0.957537866196535       10.000008917160937       -0.773279161487394        0.318874784230125        0.000000000000000
Se          8.210551275684059        2.886640208521520        8.332207287460074        0.043784106618477        0.009139504489128       -0.008377943392641
Se          8.210551275684059        2.886640208521520       11.667810546861798        0.043784106618477        0.009139504489128        0.008377943392641
Mo          6.557793331190373        3.847571866367617       10.000008917160937        0.032228535409673        0.028686325002418        0.000000000000000
Se          6.533765923643238        5.775500456025070        8.332749019460476        0.348979073259255       -0.183735741947601       -0.155219109829613
Se          6.533765923643238        5.775500456025070       11.667268814861398        0.348979073259255       -0.183735741947601        0.155219109829613
Mo         11.536950402177032        0.972857728501954       10.000008917160937       -0.509731970894295        0.230501815344284        0.000000000000000
Se         11.512920339080875        2.900783662610385        8.332749019460476        0.066558177261104       -0.014368873544304       -0.011097143310413
Se         11.512920339080875        2.900783662610385       11.667268814861398        0.066558177261104       -0.014368873544304        0.011097143310413
Mo          9.860252683253922        3.858820772022975       10.000008917160937        0.001150826288951        0.050005921937137        0.000000000000000
Se          9.847418414832690        5.783976968501912        8.332980052225350        0.206744297303258       -0.127714978588723       -0.114750185107859
Se          9.847418414832690        5.783976968501912       11.667040437645545        0.206744297303258       -0.127714978588723        0.114750185107859
Mo         14.839401787593516        0.984103978608289       10.000008917160937       -0.178240006485956        0.113729456696971        0.000000000000000
Se         14.826572830270328        2.909260175087226        8.332980052225350        0.079294399568849       -0.034873173302468       -0.012566786533747
Se         14.826572830270328        2.909260175087226       11.667040437645545        0.079294399568849       -0.034873173302468        0.012566786533747
Mo         13.172991665579955        3.864418669360437       10.000008917160937       -0.030095547274477        0.064145452977030        0.000000000000000
Se         13.173172242913422        5.785591542307024        8.332863208068401        0.038372446267754       -0.056454765766329       -0.065426891364905
Se         13.173172242913422        5.785591542307024       11.667149315155429        0.038372446267754       -0.056454765766329        0.065426891364905
Mo         18.152146081017591        0.989701875945751       10.000008917160937        0.166636612736995       -0.013302122366275        0.000000000000000
Se         18.152326658351058        2.910877404441360        8.332863208068401        0.080393289550747       -0.048919373255925       -0.012261339341773
Se         18.152326658351058        2.910877404441360       11.667149315155429        0.080393289550747       -0.048919373255925        0.012261339341773
Mo         16.496945031424065        3.863579515869622       10.000008917160937       -0.056907280124808        0.069140851540038        0.000000000000000
Se         16.510135143414189        5.780121111322597        8.332417075832778       -0.129197991554466        0.018962922724593       -0.017326671942001
Se         16.510135143414189        5.780121111322597       11.667600758489094       -0.129197991554466        0.018962922724593        0.017326671942001
Mo         21.476099446861703        0.988862722454936       10.000008917160937        0.479843911737597       -0.129904016797866        0.000000000000000
Se         21.489289558851826        2.905404317907911        8.332417075832778        0.073800978101083       -0.053412378036848       -0.012707168829048
Se         21.489289558851826        2.905404317907911       11.667600758489094        0.073800978101083       -0.053412378036848        0.012707168829048
Mo         19.831486071217160        3.856420155707478       10.000008917160937       -0.069541429591465        0.054547263479080        0.000000000000000
Se         19.855848077941015        5.768330473666841        8.331705388694999       -0.269849738587078        0.080345467010590        0.023820767207041
Se         19.855848077941015        5.768330473666841       11.668309790077853       -0.269849738587078        0.080345467010590       -0.023820767207041
Mo         24.810640486654798        0.981706017841814       10.000008917160937        0.738297744693494       -0.174189231646273        0.000000000000000
Se         24.835002493378653        2.893616335801176        8.331705388694999        0.052595538197707       -0.094793787678059       -0.002858553771348
Se         24.835002493378653        2.893616335801176       11.668309790077853        0.052595538197707       -0.094793787678059        0.002858553771348
Mo         23.174500967938076        3.843952353051223       10.000008917160937       -0.106348587555570       -0.060862924105038        0.000000000000000
Se         23.206609211157840        5.751879347478234        8.330826401968860       -0.266030106024823        0.110433300972139        0.154913405527209
Se         23.206609211157840        5.751879347478234       11.669191432353013       -0.266030106024823        0.110433300972139       -0.154913405527209
