# total energy = -38122.92288097767 eV 

 CRYSTAL
 PRIMVEC
       53.110927513609894        0.000000000000000        0.000000000000000
       -1.659716484800309        2.874735173529163        0.000000000000000
        0.000000000000000        0.000000000000000       19.999981973800079
 PRIMCOORD
48 1
Mo          1.634849948538437        0.943876781586372       10.096748474644333        0.001156739828863        0.000667972899619       -0.012386295011217
Se          1.627664040045846        2.856199459826913        8.422585817560321        0.015387545071745        0.008884193831190        0.018301634696179
Se          1.642264234019337        2.864628164023323       11.761568919578702       -0.015181085395688       -0.008764894591227        0.018879361834533
Mo          4.954282918139056        0.943876781586372       10.083210499221114        0.002013431784802        0.001162396258344       -0.015748785227235
Se          4.940096989400170        2.852157718243127        8.405107011315593        0.017082159922164        0.009862241910540        0.013597285141011
Se          4.968697223866250        2.868669905607109       11.744090113333971       -0.016789311141307       -0.009693320357403        0.012606124429683
Mo          8.273715887739673        0.943876781586372       10.057988119744900       -0.000089217319541       -0.000051422086191       -0.014466832618498
Se          8.254537531814510        2.849279105971890        8.377149419072429        0.024364041547647        0.014066511677502        0.011089687107915
Se          8.293122620653147        2.871553828971098       11.716127209998056       -0.023944694434761       -0.013824570761974        0.008040871617660
Mo         11.593148857340292        0.943876781586372       10.024618523988099        0.000405977370477        0.000234227602599       -0.010095955292277
Se         11.571686731532044        2.847961954969552        8.342643249466837        0.027920135918174        0.016119538468671        0.007293708705308
Se         11.614839360136850        2.872870979973435       11.681626351485214       -0.027834003923805       -0.016069916155497        0.002033743508847
Mo         14.912587138033661        0.943876781586372        9.987791406850164        0.001503581800220        0.000868004814901       -0.000867233483608
Se         14.891868565210604        2.848392153482412        8.306432219088057        0.027429312105483        0.015836202773760        0.001123829693701
Se         14.933518154566775        2.872435470367823       11.645410010013684       -0.027714447573411       -0.016001010560001       -0.003153973656515
Mo         18.232020107634280        0.943876781586372        9.952674461578164       -0.001321290504673       -0.000762846648641        0.006354741411463
Se         18.214976810995164        2.850511279490205        8.273599043699143        0.023182362006982        0.013384397704181       -0.005285676239556
Se         18.249275847983451        2.870316344360031       11.612576834624770       -0.023688355335100       -0.013676475153745       -0.007053824673227
Mo         21.551447766142150        0.943876781586372        9.924212315523620       -0.000742020703734       -0.000428345977970        0.009555509166411
Se         21.540496292888839        2.854021911798855        8.248759062901028        0.015835174332036        0.009142589814299       -0.010545898546447
Se         21.562638238569264        2.866805712051381       11.587747476012158       -0.016565110845515       -0.009563993810633       -0.010415029337091
Mo         24.870886046835516        0.943876781586372        9.906388288250053        0.001411536265938        0.000815040066125        0.013101319119700
Se         24.867566613865918        2.858430118782485        8.235401664631356        0.006084261238099        0.003512642707696       -0.014028202223290
Se         24.874428545700674        2.862397505067751       11.574390077742486       -0.006736036180568       -0.003889052378613       -0.012835209823663
Mo         28.190319016436138        0.943876781586372        9.901714526628856       -0.000354812394717       -0.000204917013470        0.014682291159637
Se         28.195114933190617        2.863119813681936        8.235401664631356       -0.004066972796833       -0.002347932455473       -0.014950714449554
Se         28.185746165577218        2.857707810168299       11.574390077742486        0.004025578017449        0.002324278295826       -0.014033858652771
Mo         31.509757297129504        0.943876781586372        9.910844295068445       -0.000279479038447       -0.000161208240208        0.015715617981642
Se         31.522004677014142        2.867427109903290        8.248759062901028       -0.013934871136854       -0.008045242494987       -0.013320377206873
Se         31.497717049862167        2.853400513946946       11.587747476012158        0.014269886028387        0.008238846649495       -0.013699615092531
Mo         34.829184955637373        0.943876781586372        9.932492309122992        0.002053541012031        0.001185536197130        0.014539080649596
Se         34.847194871157235        2.870751853965642        8.273599043699143       -0.021951060153143       -0.012673487362593       -0.009556537608135
Se         34.811398106013066        2.850081080977345       11.612576834624770        0.022232853185468        0.012836238265387       -0.011871817038877
Mo         38.148612614145236        0.943876781586372        9.963625934831470        0.000660002476259        0.000381037658674        0.013041669499719
Se         38.169872918428936        2.872621358614121        8.306432219088057       -0.026906092378491       -0.015534355127819       -0.004115309557852
Se         38.127585997942596        2.848206265236115       11.645410010013684        0.027072442827318        0.015630257318565       -0.008725556695291
Mo         41.468056205931362        0.943876781586372        9.999868831766758       -0.002193666196901       -0.001266525982880        0.004316884135720
Se         41.489576753759877        2.872775380303910        8.342643249466837       -0.028216327134634       -0.016290516905256        0.001730096089891
Se         41.446753412905657        2.848052243546325       11.681626351485214        0.028002925476942        0.016167618119260       -0.003398742786783
Mo         44.787483864439231        0.943876781586372       10.036127661980299        0.000674143549962        0.000389265192465       -0.004114024005698
Se         44.806274510593539        2.871197985756756        8.377149419072429       -0.025715928193604       -0.014847098945879        0.005934622967284
Se         44.768926906365969        2.849629638093480       11.716127209998056        0.025030214674250        0.014451148882210        0.003303097706468
Mo         48.106922145132593        0.943876781586372       10.067309087523540        0.000043965883693        0.000025453932664       -0.007929028580195
Se         48.120353898700785        2.868101618682713        8.405107011315593       -0.019203063867104       -0.011086858893174        0.009353420367681
Se         48.093713457459963        2.852726005167523       11.744090113333971        0.018412706402351        0.010630487878231        0.008968268942112
Mo         51.426355114733212        0.943876781586372       10.089036767969358       -0.001908530728973       -0.001101975307070       -0.010610433264616
Se         51.432553159974049        2.863927099780143        8.422585817560321       -0.022099155761372       -0.012759105136100        0.009254432851764
Se         51.420374824295180        2.856900524070092       11.761568919578702        0.021181014412435        0.012228943427473        0.010390860956581
