# total energy = -38122.149512555 eV 

 CRYSTAL
 PRIMVEC
       26.555490215667398        0.000000000000000        0.000000000000000
       -3.319436276958425        5.749422964633285        0.000000000000000
        0.000000000000000        0.000000000000000       20.000028456517960
 PRIMCOORD
48 1
Mo          1.594033133430759        0.918092341030183       10.000008917160937        1.787330157373104       -0.178681722206335        0.000000000000000
Se          1.679483389846734        2.823108853729558        8.341857552604449       -0.071963666961484        0.123489368655991       -0.106169381585195
Se          1.679483389846734        2.823108853729558       11.658160281717425       -0.071963666961484        0.123489368655991        0.106169381585195
Mo         -0.017120324542041        3.769995312800589       10.000008917160937        1.162801464382948        0.247016789655763        0.000000000000000
Se          0.059651597671454        5.688199281941064        8.349662211178833       -0.960566112707333        0.072309737601548       -0.266840775213622
Se          0.059651597671454        5.688199281941064       11.650360934241082       -0.960566112707333        0.072309737601548        0.266840775213622
Mo          4.962034090895596        0.895281174934924       10.000008917160937        1.080457477992552        0.432579301215293        0.000000000000000
Se          5.038806013109091        2.813485144075400        8.349662211178833       -0.395992229780085        0.246876150250031       -0.147938513756284
Se          5.038806013109091        2.813485144075400       11.650360934241082       -0.395992229780085        0.246876150250031        0.147938513756284
Mo          3.342852908230600        3.797551944997387       10.000008917160937        0.060900976448819       -0.265696119575014        0.000000000000000
Se          3.331487158418295        5.727219919263966        8.337619296366029       -0.053010514433267       -0.227364296755351       -0.066520124917323
Se          3.331487158418295        5.727219919263966       11.662401193504866       -0.053010514433267       -0.227364296755351        0.066520124917323
Mo          8.322007323668236        0.922835151582701       10.000008917160937       -1.048710510420056        0.733354796658400        0.000000000000000
Se          8.310644229404954        2.852505781398302        8.337619296366029       -0.205203948711412        0.176823070900967       -0.038042830695271
Se          8.310644229404954        2.852505781398302       11.662401193504866       -0.205203948711412        0.176823070900967        0.038042830695271
Mo          6.652782319691816        3.846913290210269       10.000008917160937       -0.006526491179340       -0.330935320325323        0.000000000000000
Se          6.565175757470329        5.774443547514488        8.318215199665440        0.921327718508126       -0.338015113152077       -0.063888599656507
Se          6.565175757470329        5.774443547514488       11.681799979107412        0.921327718508126       -0.338015113152077        0.063888599656507
Mo         11.631939390678475        0.972199152344605       10.000008917160937       -1.959947672954955        0.257661161497265        0.000000000000000
Se         11.544330172907967        2.899726754099802        8.318215199665440        0.212431322925533       -0.053066564507215        0.082077105763066
Se         11.544330172907967        2.899726754099802       11.681799979107412        0.212431322925533       -0.053066564507215       -0.082077105763066
Mo          9.922522652260641        3.866920196538754       10.000008917160937       -0.020557521617371       -0.035498722980979        0.000000000000000
Se          9.849593309481353        5.780920431578089        8.311560393817393        0.928292840082674       -0.103547112299893        0.006518263645550
Se          9.849593309481353        5.780920431578089       11.688460096053500        0.928292840082674       -0.103547112299893       -0.006518263645550
Mo         14.901682378796322        0.992203403124067       10.000008917160937       -0.868287122154437       -0.462263214689813        0.000000000000000
Se         14.828753036017034        2.906203638163403        8.311560393817393        0.407802854536396       -0.226806110009749        0.120712833112117
Se         14.828753036017034        2.906203638163403       11.688460096053500        0.407802854536396       -0.226806110009749       -0.120712833112117
Mo         13.203580934759383        3.836832826124402       10.000008917160937       -0.016806023319319        0.298178680090470        0.000000000000000
Se         13.221041169576184        5.739939999077271        8.324551339630899       -0.019818843349240        0.241495343151023        0.050785223653359
Se         13.221041169576184        5.739939999077271       11.675469150239996       -0.019818843349240        0.241495343151023       -0.050785223653359
Mo         18.182735350197017        0.962116032709716       10.000008917160937        0.933452789321493       -0.631806717959176        0.000000000000000
Se         18.200195585013823        2.865223205662585        8.324551339630899        0.179737674746264       -0.151110485142966        0.026349448295475
Se         18.200195585013823        2.865223205662585       11.675469150239996        0.179737674746264       -0.151110485142966       -0.026349448295475
Mo         16.535745258178178        3.787837946676496       10.000008917160937       -0.001800287237541        0.343905256014806        0.000000000000000
Se         16.625603725969953        5.693975101062972        8.343724403566611       -0.915726310659359        0.226684239665477       -0.171023173799503
Se         16.625603725969953        5.693975101062972       11.656290775206243       -0.915726310659359        0.226684239665477        0.171023173799503
Mo         21.514899673615815        0.913123808810831       10.000008917160937        1.913071042072961       -0.150092584946818        0.000000000000000
Se         21.604758141407590        2.819260963197308        8.343724403566611       -0.226155620619435        0.099947566266535       -0.119115148894168
Se         21.604758141407590        2.819260963197308       11.656290775206243       -0.226155620619435        0.099947566266535        0.119115148894168
Mo         19.905806921683752        3.770717622134455       10.000008917160937        0.018634078483403        0.040732462913482        0.000000000000000
Se         19.975058329068169        5.690671598080143        8.349208112296147       -0.876251374863673       -0.015945731817346       -0.204830881476097
Se         19.975058329068169        5.690671598080143       11.650809722025729       -0.876251374863673       -0.015945731817346        0.204830881476097
Mo         24.884961337121386        0.896003484268791       10.000008917160937        0.741804216750847        0.436107627659277        0.000000000000000
Se         24.954212744505806        2.815957460214479        8.349208112296147       -0.653923871450715        0.044131462810696       -0.418229196732449
Se         24.954212744505806        2.815957460214479       11.650809722025729       -0.653923871450715        0.044131462810696        0.418229196732449
Mo         23.261310865453094        3.803218886609411       10.000008917160937        0.020522040377899       -0.187904787585523        0.000000000000000
Se         23.238279288789045        5.733449837268561        8.335314279815309       -0.169149095868279       -0.389230482556422       -0.349829080343989
Se         23.238279288789045        5.733449837268561       11.664700898957545       -0.169149095868279       -0.389230482556422        0.349829080343989
