# total energy = -38122.872926432705 eV 

 CRYSTAL
 PRIMVEC
       53.110927513609894        0.000000000000000        0.000000000000000
       -1.659716484800309        2.874735173529163        0.000000000000000
        0.000000000000000        0.000000000000000       19.999981973800079
 PRIMCOORD
48 1
Mo          1.612421203849440        0.982727425062578        9.999996297992791        0.270888464728133       -0.473099648023238        0.000000000000000
Se          1.616521367453490        2.892352068185427        8.330507402529976       -0.012307876329776        0.031198293912840        0.003630142174642
Se          1.616521367453490        2.892352068185427       11.669490504548355       -0.012307876329776        0.031198293912840       -0.003630142174642
Mo          4.955754090831182        0.941332768158470        9.999996297992791        0.021060943841179       -0.031792733229206        0.000000000000000
Se          4.960629673976932        2.849619015907977        8.330507402529976        0.002295996148421       -0.001717754789205        0.000585954672145
Se          4.960629673976932        2.849619015907977       11.669490504548355        0.002295996148421       -0.001717754789205       -0.000585954672145
Mo          8.298720512413080        0.900564820199024        9.999996297992791       -0.015752641883700        0.021921749564014        0.000000000000000
Se          8.303192452509727        2.809562754377212        8.330507402529976       -0.003923505176361        0.009586619528557        0.000227028510533
Se          8.303192452509727        2.809562754377212       11.669490504548355       -0.003923505176361        0.009586619528557       -0.000227028510533
Mo         11.635510133125148        0.870514657411823        9.999996297992791       -0.012525648864794        0.025517696051339        0.000000000000000
Se         11.638489656158661        2.782083160481670        8.330507402529976       -0.009532883448487        0.017492251059535       -0.000396978505393
Se         11.638489656158661        2.782083160481670       11.669490504548355       -0.009532883448487        0.017492251059535        0.000396978505393
Mo         14.961815656746026        0.858607187463272        9.999996297992791       -0.013040126837133        0.024147554564784        0.000000000000000
Se         14.962596387380477        2.773978432943093        8.330507402529976       -0.012517678441434        0.020677335078196       -0.000408291364355
Se         14.962596387380477        2.773978432943093       11.669490504548355       -0.012517678441434        0.020677335078196        0.000408291364355
Mo         18.275937533595283        0.867800689015877        9.999996297992791       -0.011518547306746        0.015573435913325        0.000000000000000
Se         18.274365450140881        2.787261475914247        8.330507402529976       -0.011670756681871        0.019056768031892        0.000334243560240
Se         18.274365450140881        2.787261475914247       11.669490504548355       -0.011670756681871        0.019056768031892       -0.000334243560240
Mo         21.579208847953513        0.895811392186555        9.999996297992791       -0.005423744540978        0.006694384290754        0.000000000000000
Se         21.575687593459360        2.818639411889288        8.330507402529976       -0.007302193349529        0.013083064279103        0.001047467895707
Se         21.575687593459360        2.818639411889288       11.669490504548355       -0.007302193349529        0.013083064279103       -0.001047467895707
Mo         24.875596986105975        0.935708320934779        9.999996297992791        0.003134947484624       -0.007817956874023        0.000000000000000
Se         24.871034757432554        2.860352734358477        8.330507402529976       -0.001015843312700        0.004029948894776        0.001147740963779
Se         24.871034757432554        2.860352734358477       11.669490504548355       -0.001015843312700        0.004029948894776       -0.001147740963779
Mo         28.170827306038642        0.977628776021272        9.999996297992791        0.007601727001591       -0.017482995084021        0.000000000000000
Se         28.166376610313002        2.902081990105921        8.330507402529976        0.005262279190339       -0.006280693607348        0.000468969426060
Se         28.166376610313002        2.902081990105921       11.669490504548355        0.005262279190339       -0.006280693607348       -0.000468969426060
Mo         31.470885409282292        1.011200193302624        9.999996297992791        0.013859794891015       -0.021241692474140        0.000000000000000
Se         31.467666887074969        2.933502414822972        8.330507402529976        0.009687149707060       -0.015311440384182       -0.000362525707645
Se         31.467666887074969        2.933502414822972       11.669490504548355        0.009687149707060       -0.015311440384182        0.000362525707645
Mo         34.780545968220409        1.028116023715709        9.999996297992791        0.018071777970906       -0.022462452800310        0.000000000000000
Se         34.779393461093363        2.946843879814391        8.330507402529976        0.011555056987942       -0.020622827666833       -0.000523476837423
Se         34.779393461093363        2.946843879814391       11.669490504548355        0.011555056987942       -0.020622827666833        0.000523476837423
Mo         38.102246774425858        1.024191126172453        9.999996297992791        0.008051156034899       -0.017986674418260        0.000000000000000
Se         38.103473636851426        2.938802885388831        8.330507402529976        0.011094057985241       -0.020481674040239        0.000132926092803
Se         38.103473636851426        2.938802885388831       11.669490504548355        0.011094057985241       -0.020481674040239       -0.000132926092803
Mo         41.435424852066994        1.000397430646356        9.999996297992791        0.003645311690068       -0.011669985350578        0.000000000000000
Se         41.438744285036599        2.911365780235299        8.330507402529976        0.008704730750384       -0.015069242358223        0.000926368882728
Se         41.438744285036599        2.911365780235299       11.669490504548355        0.008704730750384       -0.015069242358223       -0.000926368882728
Mo         44.776665168504707        0.962619627905925        9.999996297992791       -0.004303000172449        0.000382837431691        0.000000000000000
Se         44.781296441383887        2.871330763075540        8.330507402529976        0.004811821715307       -0.006597967879146        0.001206105031606
Se         44.781296441383887        2.871330763075540       11.669490504548355        0.004811821715307       -0.006597967879146       -0.001206105031606
Mo         48.120582275689102        0.920205241193556        9.999996297992791       -0.021658468482717        0.035081946972402        0.000000000000000
Se         48.125404747907332        2.828592399705339        8.330507402529976       -0.005336841215316        0.012592754687273       -0.000295934106028
Se         48.125404747907332        2.828592399705339       11.669490504548355       -0.005336841215316        0.012592754687273        0.000295934106028
Mo         51.461121527883627        0.883643678693187        9.999996297992791       -0.030424134405237        0.031747481793358        0.000000000000000
Se         51.464961447942855        2.793725075792654        8.330507402529976       -0.105637677213982        0.179608091089063        0.005658743474870
Se         51.464961447942855        2.793725075792654       11.669490504548355       -0.105637677213982        0.179608091089063       -0.005658743474870
