# total energy = -38122.89301225265 eV 

 CRYSTAL
 PRIMVEC
       26.555490215667398        0.000000000000000        0.000000000000000
       -3.319436276958425        5.749422964633285        0.000000000000000
        0.000000000000000        0.000000000000000       20.000028456517960
 PRIMCOORD
48 1
Mo          1.634851577441262        0.943875066480574        9.927408862460323        0.009120992538099        0.005265878736372        0.155305498934414
Se          1.671423798566279        2.881467199027508        8.279160040205257       -0.057879928885108       -0.033417671152836       -0.015654939919937
Se          1.598505077983077        2.839368780388611       11.618149124609479        0.059800800914767        0.034522988895508       -0.029317016889548
Mo         -0.024866561037951        3.818589204346238        9.927408862460323        0.009120735427668        0.005265878736372        0.155278502339163
Se          0.011705660087066        5.756181336893173        8.279160040205257       -0.057880443105970       -0.033416642711112       -0.015654939919937
Se         -0.061213060496135        5.714082918254276       11.618149124609479        0.059798229810457        0.034527616883265       -0.029317016889548
Mo          4.954290509948708        0.943875066480574        9.992018370155042        0.003694934003242        0.002123989270112        0.030148254912823
Se          4.994745143743256        2.883708482401711        8.346887162451296       -0.074829419824899       -0.043202779934090        0.002138130343815
Se          4.914056286722950        2.837124841465387       11.685870935757475        0.070397864436973        0.040644274035665       -0.014879494860179
Mo          3.294569715920474        3.818589204346238        9.992018370155042        0.003686706469452        0.002137873233384        0.030148254912823
Se          3.335027005264043        5.758425275816397        8.346887162451296       -0.074822477843263       -0.043198923277625        0.002146357877605
Se          3.254340803792759        5.711838979331051       11.685870935757475        0.070401721093438        0.040646588029543       -0.014887465283539
Mo          8.273726786907133        0.943875066480574       10.061668109892695       -0.004281660006680       -0.002472116793624       -0.000903743164804
Se          8.292613051548516        2.871256613039584        8.404284199003440       -0.036069765248128       -0.020829287342889        0.018212931597500
Se          8.255063588383560        2.849576710827514       11.743270627858639        0.028862188537190        0.016661527257123        0.016092541873421
Mo          6.614008648427920        3.818589204346238       10.061668109892695       -0.004261348282634       -0.002460289713800       -0.000901686281356
Se          6.632894913069302        5.745970750905249        8.404284199003440       -0.036073621904593       -0.020822602471685        0.018212931597500
Se          6.595345449904348        5.724293504242199       11.743270627858639        0.028860388764174        0.016664612582294        0.016092541873421
Mo         11.593160408316535        0.943875066480574       10.092419367562437        0.002772678887410        0.001576601162611       -0.024642492144371
Se         11.578639866266608        2.851966704946924        8.415142738952625        0.027885168899565        0.016099483855057        0.030765319947113
Se         11.607909327582316        2.868869274469196       11.754129167807825       -0.027603632977670       -0.015936990062694        0.029052450256096
Mo          9.933444925386345        3.818589204346238       10.092419367562437        0.002751595832071        0.001612853733375       -0.024642492144371
Se          9.918916416689353        5.726680842812588        8.415142738952625        0.027928620562396        0.016124680677290        0.030789745438054
Se          9.948193844652126        5.743583412334861       11.754129167807825       -0.027611860511460       -0.015941875160882        0.029027253433863
Mo         14.912601996373002        0.943875066480574       10.064868046463681        0.007977879562077        0.004606133370544       -0.036424320532414
Se         14.873892058285627        2.838006483740547        8.372606154725169        0.071737152671813        0.041425375524904        0.031801474983858
Se         14.951532345029172        2.882829495675572       11.711589928031348       -0.069596451223689       -0.040177618603483        0.016103854732383
Mo         13.252881202344769        3.818589204346238       10.064868046463681        0.008046528047141        0.004645728376911       -0.036410950790005
Se         13.214171264257391        5.712723277155233        8.372606154725169        0.071744094653449        0.041413548445080        0.031801474983858
Se         13.291811551000936        5.757543633541236       11.711589928031348       -0.069593108788087       -0.040183532143395        0.016103854732383
Mo         18.232035617782408        0.943875066480574        9.996392059393562        0.002176439798027        0.001267040203742       -0.022387376554472
Se         18.193647001126635        2.838187061074014        8.303516735831067        0.066082265853408        0.038152616849288        0.009955315886545
Se         18.270655267203050        2.882648918342106       11.642500509137246       -0.071797059402226       -0.041452115009723       -0.005257394092151
Mo         16.572314823754173        3.818589204346238        9.996392059393562        0.002185438663110        0.001251356467454       -0.022387376554472
Se         16.533923551549382        5.712901198939679        8.303516735831067        0.066087408062027        0.038155702174459        0.009938089487671
Se         16.610934473174815        5.757363056207770       11.642500509137246       -0.071786003653695       -0.041445687248949       -0.005240167693277
Mo         21.551469239191810        0.943875066480574        9.930199844481990       -0.003905507446194       -0.002254858479468        0.003472276370036
Se         21.537689595318898        2.852391592790374        8.251460008361295        0.019749423532882        0.011395648520750       -0.020675535305179
Se         21.565487882476660        2.868441731076724       11.590449092765516       -0.026000292330240       -0.015016791830309       -0.021118279467282
Mo         19.891756411810640        3.818589204346238        9.930199844481990       -0.003966185507899       -0.002289825498078        0.003474333253484
Se         19.877966145741642        5.727105730656039        8.251460008361295        0.019743509992970        0.011405675827558       -0.020675535305179
Se         19.905767088448428        5.743158524491410       11.590449092765516       -0.026005177428428       -0.015008564296518       -0.021118279467282
Mo         24.870910827248277        0.943875066480574        9.908052565642123        0.003890337930767        0.002256915362916        0.031417352000013
Se         24.890492845733309        2.871660256490863        8.249279802614589       -0.097790409750830       -0.056459393754086       -0.093157794005898
Se         24.851551874881054        2.849173067376236       11.588268887018808        0.095576174719452        0.055181040691382       -0.090042901134888
Mo         23.211190033220042        3.818589204346238        9.908052565642123        0.003899593906282        0.002240717405766        0.031417352000013
Se         23.230780018352139        5.746377049905549        8.249279802614589       -0.097831804530213       -0.056483305024165       -0.093159336668483
Se         23.191831080852822        5.723889860790921       11.588268887018808        0.095607285081598        0.055198781311118       -0.090039558699285
