# total energy = -38122.3356123816 eV 

 CRYSTAL
 PRIMVEC
       26.555490215667398        0.000000000000000        0.000000000000000
       -3.319436276958425        5.749422964633285        0.000000000000000
        0.000000000000000        0.000000000000000       20.000028456517960
 PRIMCOORD
48 1
Mo          1.634851577441262        0.943875066480574       10.087549090656884        0.029287449189989        0.124448647673881       -1.741288106949988
Se          1.602283924240767        2.821149058551641        8.375702524884318        0.039967302270963        0.062581707335967        0.043783849508046
Se          1.667644952308589        2.899686920864478       11.714688953739515       -0.034657971871759       -0.062986656264720        0.031578560240221
Mo         -0.024866561037951        3.818589204346238       10.051869134003114        0.000663602022293        0.006100202084818       -0.330783625171060
Se         -0.052927747548847        5.680808889014044        8.316112004840360        0.066028272662907        0.399670965826177        0.806758024922797
Se          0.003417691590756        5.789455366133404       11.655101089244580       -0.107005761817089       -0.530058093123807        1.046566466536329
Mo          4.954290509948708        0.943875066480574       10.051869134003114       -0.014292511746311        0.170659362539703       -2.058337407120339
Se          4.926229323437812        2.806094751148380        8.316112004840360        0.032619086154293        0.145231398028768        0.062703834790670
Se          4.982572107028393        2.914738572718719       11.655101089244580       -0.033991027413864       -0.160525354903645        0.042949269049169
Mo          3.294569715920474        3.818589204346238        9.983475468952662       -0.007368270730284       -0.011165534685046       -0.139951635329124
Se          3.288791241249545        5.700029752832144        8.265608773548202       -0.140882889310040        0.255619190454627        0.717378211589340
Se          3.300573912258236        5.770237157864326       11.604600513501445        0.245954152244630       -0.369433493593813        0.916884336040376
Mo          8.273726786907133        0.943875066480574        9.983475468952662        0.003940731575234        0.064394078763763       -1.234223656776843
Se          8.267948312236204        2.825312959417458        8.265608773548202       -0.002200351068106        0.138431084240461        0.038842958356400
Se          8.279728327695873        2.895520364449640       11.604600513501445       -0.008065554219032       -0.151438043832001        0.034426572483900
Mo          6.614008648427920        3.818589204346238        9.925507489360882       -0.005386463528490       -0.011249352685537        0.006181191870569
Se          6.634227998678129        5.741395239941089        8.256056763717627       -0.318435125393193       -0.058027253162045        0.162160063023652
Se          6.594012364295522        5.728871670755381       11.595040537023804        0.366409617815361        0.034688568013043        0.225775097181623
Mo         11.593160408316535        0.943875066480574        9.925507489360882        0.001228987859961        0.006305890429582        0.351089692786958
Se         11.613379758566746        2.866678446526404        8.256056763717627       -0.031589358878321        0.045680296046764       -0.001272182412361
Se         11.573169435282182        2.854154877340695       11.595040537023804        0.027290472472768       -0.044225051007563       -0.002675748254940
Mo          9.933444925386345        3.818589204346238        9.914545382999854        0.007019886096341        0.011196130826330        0.146565544054989
Se          9.966976542881667        5.778809270105943        8.293481416078567       -0.327690586686681       -0.400453352867571       -0.611993016818555
Se          9.900136374008833        5.691454985041505       11.632470500482787        0.240066066265348        0.350474170415253       -0.493802694144529
Mo         14.912601996373002        0.943875066480574        9.914545382999854       -0.017705138496365        0.119569463025664        1.719292823802721
Se         14.946133613868327        2.904095132240279        8.293481416078567       -0.041113757682587       -0.084057627412706       -0.031407324693206
Se         14.879293444995492        2.816740847175841       11.632470500482787        0.045001010288183        0.081611221662177       -0.047905329716241
Mo         13.252881202344769        3.818589204346238        9.957501543972718        0.001536749045813        0.006582541253288        0.197320171567064
Se         13.278642683402987        5.788669323623020        8.354272244280274       -0.050627357848753       -0.535918668286976       -1.072433061442473
Se         13.227342787404362        5.681597587073449       11.693261328684493        0.036664975895787        0.399339293370247       -0.826072417606504
Mo         18.232035617782408        0.943875066480574        9.957501543972718       -0.013497526293801        0.163239926833659        2.011521454300050
Se         18.257797098840626        2.913952530208335        8.354272244280274       -0.031395240502951       -0.166864412578820       -0.043150586516606
Se         18.206494547292976        2.806880793658764       11.693261328684493        0.028328427282530        0.150627374643203       -0.061074783100144
Mo         16.572314823754173        3.818589204346238       10.027278750063406       -0.009391215601032       -0.014844270731139        0.116707823929144
Se         16.574123252637857        5.764750793585769        8.400072498255234        0.285476653470041       -0.315364969737170       -0.835353332832657
Se         16.570734772086340        5.705513461561679       11.739058927110433       -0.172217708861717        0.215876859810750       -0.659222146101387
Mo         21.551469239191810        0.943875066480574       10.027278750063406        0.005624547787553        0.044600689347187        1.016977683921262
Se         21.553277668075495        2.890036655720104        8.400072498255234       -0.001817256525984       -0.139537430424857       -0.030298921625362
Se         21.549889187523977        2.830799323696015       11.739058927110433       -0.008423709049351        0.128913884528262       -0.032329065588176
Mo         19.891756411810640        3.818589204346238       10.079847998494341       -0.002989165870273       -0.008046270936710       -0.029371267190480
Se         19.868536291166063        5.722147820632774        8.401992460197828        0.358942359569160        0.097357692895534       -0.102409398642921
Se         19.915196943024007        5.748119090063697       11.740978889053027       -0.335950002170653       -0.114160373779250       -0.046172662522041
Mo         24.870910827248277        0.943875066480574       10.079847998494341       -0.000794728342079        0.015567008152551       -0.600771432059561
Se         24.847690706603696        2.847433682767109        8.401992460197828        0.092354838130028        0.008215963821140        0.079198497378103
Se         24.894351358461645        2.873402296649010       11.740978889053027       -0.098042635083596       -0.007227888434983        0.082874405209455
Mo         23.211190033220042        3.818589204346238       10.082049448633219        0.006791057812792        0.012508165355489       -0.159491513860778
Se         23.177669037920804        5.687737216411311        8.358815888656174        0.229169211980649        0.391926799645838        0.589922400315019
Se         23.244939405735135        5.782529694285158       11.697799661962351       -0.334833628679450       -0.465834735686198        0.744332126507988
