# total energy = -38122.75595089935 eV 

 CRYSTAL
 PRIMVEC
       26.555490215667398        0.000000000000000        0.000000000000000
       -3.319436276958425        5.749422964633285        0.000000000000000
        0.000000000000000        0.000000000000000       20.000028456517960
 PRIMCOORD
48 1
Mo          1.574161660102375        0.981496229469110       10.000008917160937        1.167378544274794       -0.155258447725549        0.000000000000000
Se          1.587094183837405        2.894750255233385        8.330951212772874        0.096490202301494        0.063912253816155       -0.016821964166038
Se          1.587094183837405        2.894750255233385       11.669069277098020        0.096490202301494        0.063912253816155        0.016821964166038
Mo         -0.073383441661975        3.849653816800526       10.000008917160937        0.765075281856508       -0.013892705026177        0.000000000000000
Se         -0.058289301023390        5.761981055956275        8.330829057517882       -0.110953949594821        0.158022899079168        0.023633333702876
Se         -0.058289301023390        5.761981055956275       11.669191432353013       -0.110953949594821        0.158022899079168       -0.023633333702876
Mo          4.905770973775661        0.974937023385840       10.000008917160937        0.447170832392804       -0.170417164513745        0.000000000000000
Se          4.920867769963269        2.887266918090610        8.330829057517882        0.019481000242966       -0.020481674040239       -0.001891304330099
Se          4.920867769963269        2.887266918090610       11.669191432353013        0.019481000242966       -0.020481674040239        0.001891304330099
Mo          3.259946667777287        3.841992557873306       10.000008917160937       -0.008861568113266       -0.004070829453297        0.000000000000000
Se          3.276673971064135        5.753547032263779        8.330698935615827       -0.203600865174412        0.081543087397974        0.043112019951963
Se          3.276673971064135        5.753547032263779       11.669318898706047       -0.203600865174412        0.081543087397974       -0.043112019951963
Mo          8.239101083214923        0.967278420007642       10.000008917160937        0.442179033375829       -0.161036233329951        0.000000000000000
Se          8.255828386501772        2.878830238849093        8.330698935615827        0.018221159131290       -0.017636232900870       -0.003542724628117
Se          8.255828386501772        2.878830238849093       11.669318898706047        0.018221159131290       -0.017636232900870        0.003542724628117
Mo          6.594503640864512        3.833502767651357       10.000008917160937       -0.044819490323929        0.016123652235566        0.000000000000000
Se          6.612274574916837        5.744457087962956        8.330563502615725       -0.215548015569559        0.092136808484579        0.047124742447864
Se          6.612274574916837        5.744457087962956       11.669459642804192       -0.215548015569559        0.092136808484579       -0.047124742447864
Mo         11.573660711851170        0.958788629785693       10.000008917160937        0.462423394488298       -0.174043192921491        0.000000000000000
Se         11.591428990354474        2.869742950097292        8.330563502615725        0.014018432026914       -0.015854971835219       -0.003319038553187
Se         11.591428990354474        2.869742950097292       11.669459642804192        0.014018432026914       -0.015854971835219        0.003319038553187
Mo          9.929751056697345        3.824487178723138       10.000008917160937       -0.043842984907166        0.010573923583421        0.000000000000000
Se          9.947938911946055        5.735037855583458        8.330422758517582       -0.222787988194798        0.097770869358077        0.051097355716537
Se          9.947938911946055        5.735037855583458       11.669600386902333       -0.222787988194798        0.097770869358077       -0.051097355716537
Mo         14.908902816585961        0.949770385308452       10.000008917160937        0.466712253587044       -0.178554709653444        0.000000000000000
Se         14.927093327383695        2.860323717717794        8.330422758517582        0.009865070125280       -0.014016889364328       -0.002849812016696
Se         14.927093327383695        2.860323717717794       11.669600386902333        0.009865070125280       -0.014016889364328        0.002849812016696
Mo         13.265131249981257        3.815259145873194       10.000008917160937       -0.042210847891469        0.007327390171763        0.000000000000000
Se         13.283090728014111        5.725623934302004        8.330287325517483       -0.221758518029257        0.099630549105169        0.053686457756246
Se         13.283090728014111        5.725623934302004       11.669730508804390       -0.221758518029257        0.099630549105169       -0.053686457756246
Mo         18.244285665418893        0.940545008007529       10.000008917160937        0.451850242236170       -0.175104030559608        0.000000000000000
Se         18.262245143451750        2.850909796436340        8.330287325517483        0.004827762562026       -0.013163539843991       -0.002221691233875
Se         18.262245143451750        2.850909796436340       11.669730508804390        0.004827762562026       -0.013163539843991        0.002221691233875
Mo         16.600073277676607        3.806150612729220       10.000008917160937       -0.040701352551337        0.004991541906544        0.000000000000000
Se         16.617185635571584        5.716547267746289        8.330159859164446       -0.213626629319039        0.096546766596304        0.054850139566744
Se         16.617185635571584        5.716547267746289       11.669860630706447       -0.213626629319039        0.096546766596304       -0.054850139566744
Mo         21.579227693114245        0.931436474863556       10.000008917160937        0.404977982231502       -0.149311226347148        0.000000000000000
Se         21.596340051009221        2.841830474331603        8.330159859164446       -0.006114857379383       -0.006151109950147        0.000250425559749
Se         21.596340051009221        2.841830474331603       11.669860630706447       -0.006114857379383       -0.006151109950147       -0.000250425559749
Mo         19.934038063332025        3.797485556271847       10.000008917160937       -0.052353340171748        0.018021127216008        0.000000000000000
Se         19.949687213716118        5.708126521798901        8.330043015007497       -0.204359340945727        0.096226921220197        0.055209579949218
Se         19.949687213716118        5.708126521798901       11.669969508216333       -0.204359340945727        0.096226921220197       -0.055209579949218
Mo         24.913192478769663        0.922768762857162       10.000008917160937        0.245022641153283       -0.195338621475700        0.000000000000000
Se         24.928841629153755        2.833409728384215        8.330043015007497       -0.408448201718091       -0.050516543253012       -0.226149964189954
Se         24.928841629153755        2.833409728384215       11.669969508216333       -0.408448201718091       -0.050516543253012        0.226149964189954
Mo         23.266499808241235        3.789564053540514       10.000008917160937       -0.165135859151515       -0.038712089147044        0.000000000000000
Se         23.280141363565026        5.700661773499277        8.329944759693699       -0.583137513152570        0.031381356539679       -0.184098524765677
Se         23.280141363565026        5.700661773499277       11.670070419079151       -0.583137513152570        0.031381356539679        0.184098524765677
