# total energy = -38122.89040213553 eV 

 CRYSTAL
 PRIMVEC
       26.555490215667398        0.000000000000000        0.000000000000000
       -3.319436276958425        5.749422964633285        0.000000000000000
        0.000000000000000        0.000000000000000       20.000028456517960
 PRIMCOORD
48 1
Mo          1.634851577441262        0.943875066480574        9.968025484745185        0.006135940434721        0.003542724628117       -0.182961325329567
Se          1.603624976496658        2.842324406449615        8.279160040205257        0.063334526677801        0.036564959938146        0.003436280909702
Se          1.666303900052698        2.878511572966505       11.618149124609479       -0.069256551233968       -0.039988385326301       -0.004133821508881
Mo         -0.024866561037951        3.818589204346238        9.968025484745185        0.006141853974633        0.003546067063720       -0.182986007930939
Se         -0.056093161982554        5.717038544315279        8.279160040205257        0.063333498236077        0.036566759711163        0.003436280909702
Se          0.006585761573486        5.753225710832169       11.618149124609479       -0.069259379448708       -0.039983757338544       -0.004133821508881
Mo          4.954290509948708        0.943875066480574        9.914893259921680       -0.001767634212810       -0.001029984386402        0.006923983905596
Se          4.953469945301044        2.859880241031192        8.243833271571356       -0.001403822953010       -0.000810669188798       -0.025132544625769
Se          4.955331485165162        2.860955738384927       11.582819700426555       -0.002274913093082       -0.001313320081314       -0.024148840116939
Mo          3.294569715920474        3.818589204346238        9.914893259921680       -0.001775861746600       -0.001015843312700        0.006923983905596
Se          3.293751806821831        5.734594378896857        8.243833271571356       -0.001396366750512       -0.000806298311472       -0.025124317091979
Se          3.295613346685950        5.735669876250591       11.582819700426555       -0.002266942669723       -0.001308692093557       -0.024157067650729
Mo          8.273726786907133        0.943875066480574        9.915458891863274        0.007143299103199        0.004124308422936        0.032889052106794
Se          8.303901790439195        2.877775985887531        8.263194879487598       -0.053972107445036       -0.031170783096728       -0.024534505763370
Se          8.243772193943858        2.843059993528589       11.602181308342798        0.056887482621625        0.032840972456206       -0.033582993159940
Mo          6.614008648427920        3.818589204346238        9.915458891863274        0.007163867937676        0.004136135502760        0.032896765419723
Se          6.644183651959982        5.752490123753195        8.263194879487598       -0.053980592089257       -0.031155613581301       -0.024534505763370
Se          6.584054055464647        5.717774131394253       11.602181308342798        0.056884911517315        0.032845343333532       -0.033582993159940
Mo         11.593160408316535        0.943875066480574        9.969369192550099        0.005954420470467        0.003411598308331        0.034551528153344
Se         11.635370360014340        2.884720246578928        8.325029338454780       -0.076719695713274       -0.044294213713490       -0.003994724765735
Se         11.551178833834587        2.836115732837192       11.664021078408023        0.075013253783031        0.043308966542074       -0.023083117380634
Mo          9.933444925386345        3.818589204346238        9.969369192550099        0.005931794752543        0.003450936204267        0.034551528153344
Se          9.975649565986105        5.759434384444592        8.325029338454780       -0.076679843596476       -0.044271073774704       -0.003969270833070
Se          9.891463350904397        5.710829870702857       11.664021078408023        0.075016853329065        0.043311023425521       -0.023108571313298
Mo         14.912601996373002        0.943875066480574       10.042609234564910       -0.003241134092608       -0.001871249716484        0.006168079238590
Se         14.940272817177730        2.876331367219799        8.390323977797063       -0.052628448332869       -0.030415906871446        0.013666962067799
Se         14.885143619490002        2.844504612196321       11.729310406652262        0.044885567704685        0.025889734844929        0.007281367404622
Mo         13.252881202344769        3.818589204346238       10.042609234564910       -0.003196911098484       -0.001845795783820        0.006185305637464
Se         13.280562645345581        5.751045505085463        8.390323977797063       -0.052655187817688       -0.030369626993875        0.013666962067799
Se         13.225430792108833        5.719218750061986       11.729310406652262        0.044863970428485        0.025927015857418        0.007281367404622
Mo         18.232035617782408        0.943875066480574       10.088969809383421       -0.000367925026695       -0.000210573442951       -0.017952478730943
Se         18.227794705994963        2.857901857010125        8.417888576640927        0.007884291365209        0.004551883069612        0.027567894627767
Se         18.236504906785704        2.862931466856973       11.756869694398082       -0.010215254532240       -0.005897856175658        0.028248980159365
Mo         16.572314823754173        3.818589204346238       10.088969809383421       -0.000366382364110       -0.000213401657692       -0.017952478730943
Se         16.568073911966728        5.732618650424811        8.417888576640927        0.007895347113740        0.004558310830386        0.027552982222772
Se         16.576784112757469        5.737648260271659       11.756869694398082       -0.010205227225433       -0.005891942635746        0.028265435226946
Mo         21.551469239191810        0.943875066480574       10.079208011180144        0.007902546205807        0.004562681707713       -0.032227506967949
Se         21.518059776951478        2.841060365115349        8.390323977797063        0.064509007126399        0.037236789494229        0.034702451976314
Se         21.585109734197015        2.879772958751749       11.729310406652262       -0.061427538611414       -0.035501808306151        0.023384193695281
Mo         19.891756411810640        3.818589204346238       10.079208011180144        0.007827984180830        0.004519487155312       -0.032250389796304
Se         19.858336327374221        5.715777158530035        8.390323977797063        0.064502579365625        0.037247845242760        0.034702451976314
Se         19.925396906815848        5.754489752166434       11.729310406652262       -0.061459163194421       -0.035446786673926        0.023384193695281
Mo         24.870910827248277        0.943875066480574       10.019479402587065        0.004269318705994        0.002473145235348       -0.035728322595821
Se         24.829470984766729        2.836431743170758        8.325029338454780        0.127597222011346        0.073668309118710        0.097145062569135
Se         24.912571080298616        2.884404236245361       11.664021078408023       -0.138217939693200       -0.079800135786536        0.091524885658908
Mo         23.211190033220042        3.818589204346238       10.019479402587065        0.004276517798061        0.002460803934662       -0.035728322595821
Se         23.169760812934580        5.711145881036423        8.325029338454780        0.127561483661443        0.073647740284234        0.097145062569135
Se         23.252850286270384        5.759118374111026       11.664021078408023       -0.138182715564159       -0.079779824062491        0.091525656990201
