# total energy = -38122.90639699417 eV 

 CRYSTAL
 PRIMVEC
       53.110927513609894        0.000000000000000        0.000000000000000
       -1.659716484800309        2.874735173529163        0.000000000000000
        0.000000000000000        0.000000000000000       19.999981973800079
 PRIMCOORD
48 1
Mo          1.671188445143249        0.880940332482745        9.999996297992791       -0.046767873169700        0.087743562550865        0.000000000000000
Se          1.673971457744962        2.792848745488679        8.330507402529976        0.000574127592321        0.001946583072754        0.000316245830074
Se          1.673971457744962        2.792848745488679       11.669490504548355        0.000574127592321        0.001946583072754       -0.000316245830074
Mo          5.000484113983145        0.863854547101616        9.999996297992791       -0.010176687967597        0.021245034909742        0.000000000000000
Se          5.002178352570829        2.777648398034284        8.330507402529976       -0.006243155484429        0.010510417306975       -0.000549444990949
Se          5.002178352570829        2.777648398034284       11.669490504548355       -0.006243155484429        0.010510417306975        0.000549444990949
Mo          8.323294938573628        0.858007033982368        9.999996297992791       -0.006537032707010        0.010220910961721        0.000000000000000
Se          8.323677337251725        2.774074032612618        8.330507402529976       -0.007148441311819        0.011625505246023       -0.000483110499763
Se          8.323677337251725        2.774074032612618       11.669490504548355       -0.007148441311819        0.011625505246023        0.000483110499763
Mo         11.639137609474327        0.864221012501460        9.999996297992791       -0.005485708154838        0.010742330915696        0.000000000000000
Se         11.638170990593579        2.782630203035060        8.330507402529976       -0.006926040789043        0.011234954501404       -0.000141667847456
Se         11.638170990593579        2.782630203035060       11.669490504548355       -0.006926040789043        0.011234954501404        0.000141667847456
Mo         14.948527302682121        0.881625463447670        9.999996297992791       -0.004733660144297        0.008954384978841        0.000000000000000
Se         14.946360376839566        2.802105980154301        8.330507402529976       -0.005638688861256        0.009463463632130        0.000179205970375
Se         14.946360376839566        2.802105980154301       11.669490504548355       -0.005638688861256        0.009463463632130       -0.000179205970375
Mo         18.252866146683370        0.907766661969869        9.999996297992791       -0.005280019810075        0.001474528321522        0.000000000000000
Se         18.249817579444091        2.829771462296141        8.330507402529976       -0.003338321835509        0.006487410393835        0.000433488186589
Se         18.249817579444091        2.829771462296141       11.669490504548355       -0.003338321835509        0.006487410393835       -0.000433488186589
Mo         21.554278578578622        0.938979954069618        9.999996297992791       -0.000085103552646       -0.006014327200880        0.000000000000000
Se         21.550799812826483        2.861744240659334        8.330507402529976       -0.000719394985810        0.002449748186131        0.000520134401820
Se         21.550799812826483        2.861744240659334       11.669490504548355       -0.000719394985810        0.002449748186131       -0.000520134401820
Mo         24.855287367424772        0.970883688227043        9.999996297992791        0.004954260894056       -0.008691618118405        0.000000000000000
Se         24.851877645878396        2.893525819683478        8.330507402529976        0.001930385115604       -0.002107277092100        0.000251454001473
Se         24.851877645878396        2.893525819683478       11.669490504548355        0.001930385115604       -0.002107277092100       -0.000251454001473
Mo         28.158494948669979        0.998995302159997        9.999996297992791        0.005401375933485       -0.010834633560408        0.000000000000000
Se         28.155648202955252        2.920660192550181        8.330507402529976        0.004201698662653       -0.006415419473168       -0.000206459676056
Se         28.155648202955252        2.920660192550181       11.669490504548355        0.004201698662653       -0.006415419473168        0.000206459676056
Mo         31.466163847826337        1.019363342861466        9.999996297992791        0.009148503354211       -0.013042440831012        0.000000000000000
Se         31.464304965363358        2.939333994663966        8.330507402529976        0.005694481824773       -0.009891809610099       -0.000463055886148
Se         31.464304965363358        2.939333994663966       11.669490504548355        0.005694481824773       -0.009891809610099        0.000463055886148
Mo         34.779967059110511        1.029125131338468        9.999996297992791        0.012563958319006       -0.012682229117245        0.000000000000000
Se         34.779356283444102        2.946918235112910        8.330507402529976        0.006566857517000       -0.012075448500193       -0.000544559892761
Se         34.779356283444102        2.946918235112910       11.669490504548355        0.006566857517000       -0.012075448500193        0.000544559892761
Mo         38.100674690971452        1.026921027846653        9.999996297992791        0.004852702273829       -0.010148148709761        0.000000000000000
Se         38.101423555049401        2.942356006439491        8.330507402529976        0.006652732400939       -0.012442602195596       -0.000329358462052
Se         38.101423555049401        2.942356006439491       11.669490504548355        0.006652732400939       -0.012442602195596        0.000329358462052
Mo         41.428116788441123        1.013048453580098        9.999996297992791        0.003480761014257       -0.007189064759909        0.000000000000000
Se         41.430135003686644        2.926289950866624        8.330507402529976        0.006002243010625       -0.010944419714426        0.000031110362145
Se         41.430135003686644        2.926289950866624       11.669490504548355        0.006002243010625       -0.010944419714426       -0.000031110362145
Mo         44.761162088763484        0.989461890671304        9.999996297992791        0.001451645493167       -0.000973420091592        0.000000000000000
Se         44.764184100539005        2.900966660628135        8.330507402529976        0.004656527015011       -0.007813843107128        0.000442744162103
Se         44.764184100539005        2.900966660628135       11.669490504548355        0.004656527015011       -0.007813843107128       -0.000442744162103
Mo         48.097914531826291        0.959470149904368        9.999996297992791        0.000326273136881       -0.004251578086258        0.000000000000000
Se         48.101526074897215        2.869949878960186        8.330507402529976        0.003249618736830       -0.004817992365650        0.000510107095013
Se         48.101526074897215        2.869949878960186       11.669490504548355        0.003249618736830       -0.004817992365650       -0.000510107095013
Mo         51.435925703871170        0.927295550016623        9.999996297992791       -0.008935101696519        0.002962426385454        0.000000000000000
Se         51.439643468797115        2.837589390826144        8.330507402529976        0.013395710563143       -0.021967000999862        0.001356257523283
Se         51.439643468797115        2.837589390826144       11.669490504548355        0.013395710563143       -0.021967000999862       -0.001356257523283
