# total energy = -38122.743190251196 eV 

 CRYSTAL
 PRIMVEC
       26.555490215667398        0.000000000000000        0.000000000000000
       -3.319436276958425        5.749422964633285        0.000000000000000
        0.000000000000000        0.000000000000000       20.000028456517960
 PRIMCOORD
48 1
Mo          1.612977820150616        0.951889513427662       10.000008917160937       -0.196000937945838        0.559483353504787        0.000000000000000
Se          1.579501969184746        2.880989200203627        8.331968288048134        0.069706237377707        0.032978012315905       -0.020803833410225
Se          1.579501969184746        2.880989200203627       11.668049546273739        0.069706237377707        0.032978012315905        0.020803833410225
Mo         -0.073510908015010        3.842821089168035       10.000008917160937        0.312897738041734        0.077629609528421        0.000000000000000
Se         -0.100584230289883        5.771331244061211        8.332600308715268        0.480616014361752       -0.160289584638460       -0.173076457701103
Se         -0.100584230289883        5.771331244061211       11.667420181155627        0.480616014361752       -0.160289584638460        0.173076457701103
Mo          4.905643507422627        0.968106951302371       10.000008917160937       -0.587322242526779        0.263574444298780        0.000000000000000
Se          4.878570185147754        2.896614450646525        8.332600308715268        0.061021304130506       -0.005731248616399       -0.009414612650249
Se          4.878570185147754        2.896614450646525       11.667420181155627        0.061021304130506       -0.005731248616399        0.009414612650249
Mo          3.225984851340470        3.855634113197095       10.000008917160937        0.010107525261670        0.039152005094407        0.000000000000000
Se          3.209132737249607        5.781873773676831        8.332940218990027        0.258783705638811       -0.147881435240612       -0.129068407897265
Se          3.209132737249607        5.781873773676831       11.667080270880867        0.258783705638811       -0.147881435240612        0.129068407897265
Mo          8.205141922327128        0.980919975331430       10.000008917160937       -0.295878055954292        0.154108649878322        0.000000000000000
Se          8.188287152687245        2.907156980262145        8.332940218990027        0.078738526817126       -0.027417485025659       -0.012214288132908
Se          8.188287152687245        2.907156980262145       11.667080270880867        0.078738526817126       -0.027417485025659        0.012214288132908
Mo          6.535114942546194        3.863247572241927       10.000008917160937       -0.023963463496221        0.059684844110406        0.000000000000000
Se          6.530866064111687        5.785849130562116        8.332940218990027        0.098429843392613       -0.079750513473362       -0.082101274143576
Se          6.530866064111687        5.785849130562116       11.667080270880867        0.098429843392613       -0.079750513473362        0.082101274143576
Mo         11.514269357983832        0.988530778827240       10.000008917160937        0.048653778180749        0.026195182036903        0.000000000000000
Se         11.510020479549324        2.911134992696452        8.332940218990027        0.083902589822841       -0.043921403588607       -0.012534904840308
Se         11.510020479549324        2.911134992696452       11.667080270880867        0.083902589822841       -0.043921403588607        0.012534904840308
Mo          9.855326639818916        3.864585968948796       10.000008917160937       -0.053383581668582        0.066567690347049        0.000000000000000
Se          9.864291773315726        5.782704960520581        8.332600308715268       -0.072696431689703       -0.005021109606104       -0.032403884723584
Se          9.864291773315726        5.782704960520581       11.667420181155627       -0.072696431689703       -0.005021109606104        0.032403884723584
Mo         14.834483710805575        0.989869175534110       10.000008917160937        0.374856209693068       -0.096896436782402        0.000000000000000
Se         14.843443533204342        2.907990822654917        8.332600308715268        0.077609040693945       -0.052932609972688       -0.011377136569722
Se         14.843443533204342        2.907990822654917       11.667420181155627        0.077609040693945       -0.052932609972688        0.011377136569722
Mo         13.186511065648752        3.859463414886193       10.000008917160937       -0.074634787228667        0.065360556873719        0.000000000000000
Se         13.207452725232827        5.772876773591763        8.331968288048134       -0.226567254419393        0.066134202160460        0.011983145855481
Se         13.207452725232827        5.772876773591763       11.668049546273739       -0.226567254419393        0.066134202160460       -0.011983145855481
Mo         18.165665481086389        0.984749277020530       10.000008917160937        0.638832003374567       -0.201978498355092        0.000000000000000
Se         18.186604485121443        2.898162635726099        8.331968288048134        0.059916243498265       -0.054164168936958       -0.008885222272914
Se         18.186604485121443        2.898162635726099       11.668049546273739        0.059916243498265       -0.054164168936958        0.008885222272914
Mo         16.527013812995264        3.848602219387986       10.000008917160937       -0.084187468180338        0.055656694988647        0.000000000000000
Se         16.556994961448751        5.757748110815897        8.331129134557319       -0.343408775772633        0.124574117564187        0.048190979405031
Se         16.556994961448751        5.757748110815897       11.668891355313576       -0.343408775772633        0.124574117564187       -0.048190979405031
Mo         21.506168228432902        0.973888081522321       10.000008917160937        0.804808099414441       -0.262130769228973        0.000000000000000
Se         21.536149376886389        2.883033972950233        8.331129134557319        0.033827248069346       -0.041593782857179       -0.006844022561569
Se         21.536149376886389        2.883033972950233       11.668891355313576        0.033827248069346       -0.041593782857179        0.006844022561569
Mo         19.873876600248430        3.833526667592551       10.000008917160937       -0.084719943882844        0.039817921110578        0.000000000000000
Se         19.908717403411387        5.739443411410238        8.330205003497813       -0.412592307644210        0.163295976907607        0.076519149577130
Se         19.908717403411387        5.739443411410238       11.669810175275037       -0.412592307644210        0.163295976907607       -0.076519149577130
Mo         24.853031015686067        0.958812529726887       10.000008917160937        0.832952692738838       -0.297842122536351        0.000000000000000
Se         24.887871818849025        2.864729273544573        8.330205003497813       -0.319784183824410       -0.100515008987651       -0.181531791333462
Se         24.887871818849025        2.864729273544573       11.669810175275037       -0.319784183824410       -0.100515008987651        0.181531791333462
Mo         23.223259503523064        3.816353232070079       10.000008917160937       -0.188116903691060       -0.125271401052934        0.000000000000000
Se         23.258071095646784        5.720533246827661        8.329326016771674       -0.644951745852138        0.120679665866524        0.004949890016730
Se         23.258071095646784        5.720533246827661       11.670689162001176       -0.644951745852138        0.120679665866524       -0.004949890016730
