# total energy = -38122.85077921345 eV 

 CRYSTAL
 PRIMVEC
       26.555490215667398        0.000000000000000        0.000000000000000
       -3.319436276958425        5.749422964633285        0.000000000000000
        0.000000000000000        0.000000000000000       20.000028456517960
 PRIMCOORD
48 1
Mo          1.664808825953556        0.891988294148182       10.000008917160937        0.050169958392086       -0.086466495040315        0.000000000000000
Se          1.673192394214642        2.794203202629804        8.330515702733337       -0.042436333739415        0.076684985805095       -0.003137518588934
Se          1.673192394214642        2.794203202629804       11.669499476039515       -0.042436333739415        0.076684985805095        0.003137518588934
Mo          0.005090687474343        3.766702432013846       10.000008917160937        0.050195926545612       -0.086427671365241        0.000000000000000
Se          0.013474255735430        5.668919996044490        8.330515702733337       -0.042431191530796        0.076694756001472       -0.003128262613419
Se          0.013474255735430        5.668919996044490       11.669499476039515       -0.042431191530796        0.076694756001472        0.003128262613419
Mo          4.998818755942339        0.866749956247211       10.000008917160937        0.035370681986364       -0.059090661904471        0.000000000000000
Se          5.004063465259933        2.774400773575981        8.330515702733337       -0.060828985528152        0.103228038255079       -0.001591513567606
Se          5.004063465259933        2.774400773575981       11.669499476039515       -0.060828985528152        0.103228038255079        0.001591513567606
Mo          3.339100617463127        3.741464094112876       10.000008917160937        0.035383280397481       -0.059066750634392        0.000000000000000
Se          3.344342671231699        5.649114911441645        8.330515702733337       -0.060825385982119        0.103234466015853       -0.001584828696401
Se          3.344342671231699        5.649114911441645       11.669499476039515       -0.060825385982119        0.103234466015853        0.001584828696401
Mo          8.304732977282946        0.890171898617430       10.000008917160937        0.029330386631958       -0.060828728417721        0.000000000000000
Se          8.303599057850736        2.808867144326896        8.330515702733337       -0.043046199681639        0.071337088841249        0.002475202118796
Se          8.303599057850736        2.808867144326896       11.669499476039515       -0.043046199681639        0.071337088841249       -0.002475202118796
Mo          6.645014838803733        3.764886036483094       10.000008917160937        0.029337585724025       -0.060821529325655        0.000000000000000
Se          6.643880919371524        5.683581282192560        8.330515702733337       -0.043024859515869        0.071351744135813        0.002490628744653
Se          6.643880919371524        5.683581282192560       11.669499476039515       -0.043024859515869        0.071351744135813       -0.002490628744653
Mo         11.591089080079712        0.947473335404797       10.000008917160937        0.013591885821961       -0.029780329886128        0.000000000000000
Se         11.584359918859064        2.875856023944938        8.330515702733337        0.005506791210176       -0.003539639302946        0.001470671665058
Se         11.584359918859064        2.875856023944938       11.669499476039515        0.005506791210176       -0.003539639302946       -0.001470671665058
Mo          9.931368286051480        3.822190128819483       10.000008917160937        0.013674161159866       -0.029767988585442        0.000000000000000
Se          9.924641780379851        5.750570161810602        8.330515702733337        0.005528131375945       -0.003520098910193        0.001472985658936
Se          9.924641780379851        5.750570161810602       11.669499476039515        0.005528131375945       -0.003520098910193       -0.001472985658936
Mo         14.878751712995092        1.002506933327746       10.000008917160937       -0.011606221963702        0.020975840288533        0.000000000000000
Se         14.870742577146046        2.933104349751874        8.330515702733337        0.048257828117079       -0.077745309222350       -0.002558248787994
Se         14.870742577146046        2.933104349751874       11.669499476039515        0.048257828117079       -0.077745309222350        0.002558248787994
Mo         13.219030918966858        3.877221071193411       10.000008917160937       -0.011578196926728        0.021027776595586        0.000000000000000
Se         13.211032405313899        5.807821143166560        8.330515702733337        0.048168867907969       -0.077734253473819       -0.002581131616349
Se         13.211032405313899        5.807821143166560       11.669499476039515        0.048168867907969       -0.077734253473819        0.002581131616349
Mo         18.187764960043868        1.020548733380271       10.000008917160937       -0.031889920972107        0.058120841358912        0.000000000000000
Se         18.183606370276095        2.944493999505374        8.330515702733337        0.058334757237466       -0.104351610838349       -0.001058009423376
Se         18.183606370276095        2.944493999505374       11.669499476039515        0.058334757237466       -0.104351610838349        0.001058009423376
Mo         16.528054788211719        3.895265526794957       10.000008917160937       -0.032061927850415        0.058110042720812        0.000000000000000
Se         16.523885576247860        5.819210792920059        8.330515702733337        0.058376152016850       -0.104338241095939       -0.001023042404767
Se         16.523885576247860        5.819210792920059       11.669499476039515        0.058376152016850       -0.104338241095939        0.001023042404767
Mo         21.524719893897569        0.990217052455935       10.000008917160937       -0.038142589542481        0.055382872379681        0.000000000000000
Se         21.527088643624804        2.902839057553078        8.330515702733337        0.034834606737825       -0.061963099639091        0.002742339856557
Se         21.527088643624804        2.902839057553078       11.669499476039515        0.034834606737825       -0.061963099639091       -0.002742339856557
Mo         19.864996444320312        3.864931190321600       10.000008917160937       -0.038080883039052        0.055408069201915        0.000000000000000
Se         19.867378471792655        5.777555850967763        8.330515702733337        0.034783698872496       -0.061942273694184        0.002744910960867
Se         19.867378471792655        5.777555850967763       11.669499476039515        0.034783698872496       -0.061942273694184       -0.002744910960867
Mo         24.878550841783323        0.930647776804150       10.000008917160937       -0.013540463735770        0.021351478628157        0.000000000000000
Se         24.886031523377078        2.834418837012411        8.330515702733337       -0.017281420506153        0.036434090728790       -0.000209545001228
Se         24.886031523377078        2.834418837012411       11.669499476039515       -0.017281420506153        0.036434090728790        0.000209545001228
Mo         23.218830047755091        3.805364570218836       10.000008917160937       -0.013511924477934        0.021349164634279        0.000000000000000
Se         23.226310729348846        5.709135630427097        8.330515702733337       -0.017236683291167        0.036431262514050       -0.000209545001228
Se         23.226310729348846        5.709135630427097       11.669499476039515       -0.017236683291167        0.036431262514050        0.000209545001228
