# total energy = -38122.791418505185 eV 

 CRYSTAL
 PRIMVEC
       26.555490215667398        0.000000000000000        0.000000000000000
       -3.319436276958425        5.749422964633285        0.000000000000000
        0.000000000000000        0.000000000000000       20.000028456517960
 PRIMCOORD
48 1
Mo          1.632636849557275        0.947714990365760       10.000008917160937       -0.233221786593349        0.398677234010540        0.000000000000000
Se          1.625517322630454        2.876780155004443        8.330515702733337        0.020586575096069       -0.035817539915362        0.000265852185607
Se          1.625517322630454        2.876780155004443       11.669499476039515        0.020586575096069       -0.035817539915362       -0.000265852185607
Mo         -0.027081288921938        3.822429128231424       10.000008917160937       -0.233176792267932        0.398693946188552        0.000000000000000
Se         -0.034200815848758        5.751494292870108        8.330515702733337        0.020589917531671       -0.035805969945969        0.000270480173364
Se         -0.034200815848758        5.751494292870108       11.669499476039515        0.020589917531671       -0.035805969945969       -0.000270480173364
Mo          4.915941726528263        1.010295658608001       10.000008917160937       -0.051062902918789        0.081171048604384        0.000000000000000
Se          4.905271730559607        2.945511074780634        8.330515702733337        0.102503758171081       -0.171062511695439       -0.003520356020624
Se          4.905271730559607        2.945511074780634       11.669499476039515        0.102503758171081       -0.171062511695439        0.003520356020624
Mo          3.256223588049050        3.885012452022687       10.000008917160937       -0.051054675384999        0.081186475230241        0.000000000000000
Se          3.245553592080395        5.820227868195319        8.330515702733337        0.102508643269269       -0.171054284161649       -0.003515470922436
Se          3.245553592080395        5.820227868195319       11.669499476039515        0.102508643269269       -0.171054284161649        0.003515470922436
Mo          8.247710373142844        0.988937077827540       10.000008917160937       -0.073527412602547        0.112570145763799        0.000000000000000
Se          8.247112874612990        2.906705536928479        8.330515702733337        0.072481744479857       -0.130349332064279        0.005666713898230
Se          8.247112874612990        2.906705536928479       11.669499476039515        0.072481744479857       -0.130349332064279       -0.005666713898230
Mo          6.587989579114609        3.863653871242226       10.000008917160937       -0.073518413737464        0.112577087745434        0.000000000000000
Se          6.587394736133778        5.781422330343164        8.330515702733337        0.072500770651747       -0.130335448101007        0.005681626303225
Se          6.587394736133778        5.781422330343164       11.669499476039515        0.072500770651747       -0.130335448101007       -0.005681626303225
Mo         11.612360027742463        0.910632903828602       10.000008917160937       -0.030865593015185        0.040583338863529        0.000000000000000
Se         11.622729946671681        2.809403565229252        8.330515702733337       -0.038014548547866        0.082547103630850       -0.000910170925578
Se         11.622729946671681        2.809403565229252       11.669499476039515       -0.038014548547866        0.082547103630850        0.000910170925578
Mo          9.952636578165208        3.785347041694266       10.000008917160937       -0.030765062836682        0.040583338863529        0.000000000000000
Se          9.963009152643446        5.684117703094916        8.330515702733337       -0.037969811332880        0.082555074054210       -0.000906828489975
Se          9.963009152643446        5.684117703094916       11.669499476039515       -0.037969811332880        0.082555074054210        0.000906828489975
Mo         14.952753897579093        0.874336859801828       10.000008917160937        0.050803478493957       -0.091066200650085        0.000000000000000
Se         14.961124188095070        2.776570357126601        8.330515702733337       -0.109522358715268        0.186738534670715       -0.000351727069545
Se         14.961124188095070        2.776570357126601       11.669499476039515       -0.109522358715268        0.186738534670715        0.000351727069545
Mo         13.293030448001836        3.749050997667492       10.000008917160937        0.050900152015995       -0.091044603373885        0.000000000000000
Se         13.301400738517815        5.651284494992265        8.330515702733337       -0.109473764843818        0.186746762204505       -0.000344270867048
Se         13.301400738517815        5.651284494992265       11.669499476039515       -0.109473764843818        0.186746762204505        0.000344270867048
Mo         18.242405536711622        0.925920899545761       10.000008917160937        0.055507313828263       -0.111827096618341        0.000000000000000
Se         18.238334580061565        2.849698866082506        8.330515702733337       -0.032280214606295        0.060436120789654        0.005489821921733
Se         18.238334580061565        2.849698866082506       11.669499476039515       -0.032280214606295        0.060436120789654       -0.005489821921733
Mo         16.582684742683391        3.800637692960447       10.000008917160937        0.055612986215385       -0.111818611974120        0.000000000000000
Se         16.578613786033330        5.724413003948170        8.330515702733337       -0.032222621869761        0.060456175403269        0.005493935688629
Se         16.578613786033330        5.724413003948170       11.669499476039515       -0.032222621869761        0.060456175403269       -0.005493935688629
Mo         21.518960008069790        1.000193950129961       10.000008917160937       -0.010501675552323        0.011684640645143        0.000000000000000
Se         21.507729691257584        2.936373330597422        8.330515702733337        0.088833967888541       -0.140859492260823       -0.003402085222385
Se         21.507729691257584        2.936373330597422       11.669499476039515        0.088833967888541       -0.140859492260823        0.003402085222385
Mo         19.859236558492537        3.874910743544647       10.000008917160937       -0.010436112392429        0.011752517798915        0.000000000000000
Se         19.848016863876417        5.811090124012108        8.330515702733337        0.088743207906415       -0.140852807389618       -0.003424710940309
Se         19.848016863876417        5.811090124012108       11.669499476039515        0.088743207906415       -0.140852807389618        0.003424710940309
Mo         24.836601133889634        1.003295631387151       10.000008917160937       -0.069419302136762        0.125823931369055        0.000000000000000
Se         24.832551421631745        2.927057664629766        8.330515702733337        0.076436102907932       -0.135524965039386       -0.001449331499289
Se         24.832551421631745        2.927057664629766       11.669499476039515        0.076436102907932       -0.135524965039386        0.001449331499289
Mo         23.176890962057488        3.878009769252816       10.000008917160937       -0.069595165671534        0.125825988252502        0.000000000000000
Se         23.172830627603513        5.801771802495431        8.330515702733337        0.076459242846718       -0.135504396204910       -0.001417706916281
Se         23.172830627603513        5.801771802495431       11.669499476039515        0.076459242846718       -0.135504396204910        0.001417706916281
