# total energy = -38122.88900265342 eV 

 CRYSTAL
 PRIMVEC
       26.555490215667398        0.000000000000000        0.000000000000000
       -3.319436276958425        5.749422964633285        0.000000000000000
        0.000000000000000        0.000000000000000       20.000028456517960
 PRIMCOORD
48 1
Mo          1.634851577441262        0.943875066480574        9.974906012260066        0.011001498230098        0.006351656086292        0.213681393840832
Se          1.676865018511469        2.884608713520022        8.330515702733337       -0.077875921321275       -0.044969385705176       -0.004483748805410
Se          1.593061202488866        2.836224610347076       11.669499476039515        0.076710696848191        0.044285214848407       -0.022615433506728
Mo         -0.024866561037951        3.818589204346238        9.974906012260066        0.010998927125788        0.006350113423706        0.213658768122908
Se          0.017146880032256        5.759322851385686        8.330515702733337       -0.077882606192480       -0.044957815735783       -0.004483748805410
Se         -0.066656935990347        5.710941403761762       11.669499476039515        0.076707611523019        0.044290871277888       -0.022615433506728
Mo          4.954290509948708        0.943875066480574       10.047678677647081       -0.003326237645254       -0.001931156446897        0.010400374042527
Se          4.979911246908784        2.875144336807158        8.394206390466595       -0.049056670226054       -0.028322770853049        0.013712213503647
Se          4.928892839106443        2.845688987059940       11.733190163772772        0.041254139977888        0.023818196102732        0.008579775080940
Mo          3.294569715920474        3.818589204346238       10.047678677647081       -0.003335493620768       -0.001914958489747        0.010400374042527
Se          3.320193108429571        5.749861130221844        8.394206390466595       -0.049048185581833       -0.028317885754860        0.013721212368731
Se          3.269174700627231        5.720405780474626       11.733190163772772        0.041261596180386        0.023822309869627        0.008571547547150
Mo          8.273726786907133        0.943875066480574       10.090369283717788        0.000380009216950        0.000219315197604       -0.019541935415102
Se          8.266859537137361        2.856388194067832        8.417713310405501        0.013378484164269        0.007721026241553        0.028374192939239
Se          8.280814447245694        2.864445129799266       11.756699739260702       -0.014909576780601       -0.008613713657826        0.028601992781065
Mo          6.614008648427920        3.818589204346238       10.090369283717788        0.000401863603581        0.000231913608721       -0.019542449635964
Se          6.607141398658149        5.731104987482518        8.417713310405501        0.013375913059959        0.007725654229311        0.028374192939239
Se          6.621096308766482        5.739161923213952       11.756699739260702       -0.014914461878789       -0.008605229013605        0.028601992781065
Mo         11.593160408316535        0.943875066480574       10.076058530040564        0.008030587200422        0.004612818241749       -0.035125912856096
Se         11.558210727643695        2.840173411742146        8.386207876813636        0.065583985838218        0.037864910277050        0.033285773501757
Se         11.628341121754252        2.880659912124953       11.725199616766876       -0.062698178361189       -0.036198834684467        0.020610486366147
Mo          9.933444925386345        3.818589204346238       10.076058530040564        0.008010018365946        0.004648299481220       -0.035125912856096
Se          9.898495244713505        5.714890205156832        8.386207876813636        0.065579614960892        0.037862339172741        0.033311998765714
Se          9.968617672176997        5.755374049990617       11.725199616766876       -0.062648298937584       -0.036170038316200        0.020585289543914
Mo         14.912601996373002        0.943875066480574       10.013769972190696        0.004232809024798        0.002443834646219       -0.029534532314135
Se         14.871682641499682        2.836731820210195        8.319564218568397        0.071882934286165        0.041477568942387        0.016961318019615
Se         14.953733795168050        2.884104159205924       11.658550647423596       -0.075583010498026       -0.043667635593255       -0.000875718127830
Mo         13.252881202344769        3.818589204346238       10.013769972190696        0.004279603123232        0.002470831241469       -0.029557158032059
Se         13.211972469667534        5.711445958075859        8.319564218568397        0.071862108341257        0.041513564402721        0.016961318019615
Se         13.294020967786881        5.758818297071588       11.658550647423596       -0.075608721541121       -0.043622898378269       -0.000875718127830
Mo         18.232035617782408        0.943875066480574        9.942792457942261       -0.004097568938116       -0.002363616191762       -0.000667715789188
Se         18.211046158315945        2.848230347473579        8.259830298877274        0.033241807618064        0.019192008118573       -0.014119219315848
Se         18.253256110013748        2.872602976393519       11.598819383281494       -0.040789027208292       -0.023549515702385       -0.017226913094791
Mo         16.572314823754173        3.818589204346238        9.942792457942261       -0.004095769165100       -0.002366958627364       -0.000667715789188
Se         16.551325364287710        5.722947140888265        8.259830298877274        0.033248749599699        0.019196121885469       -0.014136702825153
Se         16.593535315985513        5.747317114259183       11.598819383281494       -0.040780799674501       -0.023544887714627       -0.017209172475055
Mo         21.551469239191810        0.943875066480574        9.907917132642023        0.002127845926577        0.001228473639099        0.020983553601462
Se         21.563719286828299        2.867419344703420        8.244691013905321       -0.024768476255538       -0.014299453727947       -0.030491497338147
Se         21.539458190967263        2.853413979163677       11.583680098309543        0.024736851672531        0.014278370672608       -0.031149957151820
Mo         19.891756411810640        3.818589204346238        9.907917132642023        0.002067424975302        0.001193506620489        0.020982525159738
Se         19.903998492800064        5.742136138118107        8.244691013905321       -0.024767962034676       -0.014300482169670       -0.030491497338147
Se         19.879737396939031        5.728130772578364       11.583680098309543        0.024733766347359        0.014283512881227       -0.031149957151820
Mo         24.870910827248277        0.943875066480574        9.931145219933668        0.007177237680085        0.004154390343357        0.041069277578032
Se         24.908731156413431        2.882189508361375        8.283701029032136       -0.145168920194046       -0.083813372503300       -0.115007809759675
Se         24.833310908651914        2.838643815505723       11.622690113436358        0.138541127504909        0.079986797959409       -0.115398103393863
Mo         23.211190033220042        3.818589204346238        9.931145219933668        0.007186493655600        0.004138449496638        0.041069277578032
Se         23.249020984581282        5.756906301776061        8.283701029032136       -0.145211343415153       -0.083837797994240       -0.115010637974416
Se         23.173590114623678        5.713357953371387       11.622690113436358        0.138574551860934        0.080006081241730       -0.115394246737399
