# total energy = -38122.67088548996 eV 

 CRYSTAL
 PRIMVEC
       26.555490215667398        0.000000000000000        0.000000000000000
       -3.319436276958425        5.749422964633285        0.000000000000000
        0.000000000000000        0.000000000000000       20.000028456517960
 PRIMCOORD
48 1
Mo          1.701227025235322        0.903000855940619       10.000008917160937       -1.212528164392069        0.440479019206360        0.000000000000000
Se          1.680511087318080        2.822673343690021        8.329063117418540       -0.131193168498670       -0.011866674830258        0.014685376484809
Se          1.680511087318080        2.822673343690021       11.670949405805290       -0.131193168498670       -0.011866674830258       -0.014685376484809
Mo          0.020439760818999        3.788578844853513       10.000008917160937       -0.750816708687083        0.044742357194643        0.000000000000000
Se         -0.009320977065699        5.712516144331551        8.329902270909354        0.323584790214774       -0.224753597439442       -0.078539523343568
Se         -0.009320977065699        5.712516144331551       11.670120874510561        0.323584790214774       -0.224753597439442        0.078539523343568
Mo          4.999596831805658        0.913862051438827       10.000008917160937       -0.910427264677393        0.350336102113831        0.000000000000000
Se          4.969833438371938        2.837799350916865        8.329902270909354       -0.037740211718038        0.056909079897825        0.000023139938786
Se          4.969833438371938        2.837799350916865       11.670120874510561       -0.037740211718038        0.056909079897825       -0.000023139938786
Mo          3.312446871933661        3.803654396648947       10.000008917160937        0.053486682951394       -0.009444437460239        0.000000000000000
Se          3.277834445986560        5.730820843737211        8.330826401968860        0.445928474790434       -0.194613312949979       -0.148162971162507
Se          3.277834445986560        5.730820843737211       11.669191432353013        0.445928474790434       -0.194613312949979        0.148162971162507
Mo          8.291601287371298        0.928940258783283       10.000008917160937       -0.961024283495294        0.365295301207606        0.000000000000000
Se          8.256988861424198        2.856106705871547        8.330826401968860       -0.008418566840732        0.042352001518062       -0.001527493070299
Se          8.256988861424198        2.856106705871547       11.669191432353013       -0.008418566840732        0.042352001518062        0.001527493070299
Mo          6.601944489222943        3.820827832171419       10.000008917160937        0.079631728454261       -0.012733651203436        0.000000000000000
Se          6.567355963217035        5.749731008319787        8.331705388694999        0.465199672921741       -0.219303884744938       -0.173092398547823
Se          6.567355963217035        5.749731008319787       11.668309790077853        0.465199672921741       -0.219303884744938        0.173092398547823
Mo         11.581098904660578        0.946113694305755       10.000008917160937       -0.889685394881028        0.357453175953073        0.000000000000000
Se         11.546510378654672        2.875014214905101        8.331705388694999        0.023192646424220        0.022989529183766       -0.005512447639657
Se         11.546510378654672        2.875014214905101       11.668309790077853        0.023192646424220        0.022989529183766        0.005512447639657
Mo          9.893133691238962        3.837687912909347       10.000008917160937        0.056395887477641        0.015663167453728        0.000000000000000
Se          9.863444653177845        5.766591089057714        8.332417075832778        0.415616697643524       -0.209366823698990       -0.171093622057585
Se          9.863444653177845        5.766591089057714       11.667600758489094        0.415616697643524       -0.209366823698990        0.171093622057585
Mo         14.872293417774641        0.962973775043682       10.000008917160937       -0.693669030309333        0.297332015441338        0.000000000000000
Se         14.842601724164503        2.891874295643029        8.332417075832778        0.050430925479504        0.000177149086927       -0.009141304262144
Se         14.842601724164503        2.891874295643029       11.667600758489094        0.050430925479504        0.000177149086927        0.009141304262144
Mo         13.189981868219940        3.851865889135492       10.000008917160937        0.025301466178906        0.039761613926199        0.000000000000000
Se         13.169380118910626        5.779032336223755        8.332863208068401        0.304197378168676       -0.168725120767635       -0.143281472520411
Se         13.169380118910626        5.779032336223755       11.667149315155429        0.304197378168676       -0.168725120767635        0.143281472520411
Mo         18.169146905853662        0.977151751269827       10.000008917160937       -0.400701464433442        0.195615272299407        0.000000000000000
Se         18.148534534348261        2.904318198358090        8.332863208068401        0.070364440080949       -0.021456893904849       -0.011767173093479
Se         18.148534534348261        2.904318198358090       11.667149315155429        0.070364440080949       -0.021456893904849        0.011767173093479
Mo         16.495673023442738        3.861370099083679       10.000008917160937       -0.006181191870569        0.057053833070452        0.000000000000000
Se         16.487063733514816        5.785310054110739        8.332980052225350        0.150898626147859       -0.104397119384628       -0.099148209936699
Se         16.487063733514816        5.785310054110739       11.667040437645545        0.150898626147859       -0.104397119384628        0.099148209936699
Mo         21.474827438880371        0.986655961218014       10.000008917160937       -0.046792041550210        0.060964225614834        0.000000000000000
Se         21.466218148952454        2.910593260696053        8.332980052225350        0.085798265030266       -0.043752482035470       -0.015600432508575
Se         21.466218148952454        2.910593260696053       11.667040437645545        0.085798265030266       -0.043752482035470        0.015600432508575
Mo         19.812116496653854        3.864867457145083       10.000008917160937       -0.023718437255521        0.048027971391806        0.000000000000000
Se         19.816726529755293        5.784537289345463        8.332749019460476       -0.014112534444643       -0.040038778970768       -0.051700536787556
Se         19.816726529755293        5.784537289345463       11.667268814861398       -0.014112534444643       -0.040038778970768        0.051700536787556
Mo         24.791281534287577        0.990150663730396       10.000008917160937        0.350039396676510        0.021688293292707        0.000000000000000
Se         24.795880945192931        2.909823151479798        8.332749019460476        0.360296303098564       -0.071703471205358        0.146051837413942
Se         24.795880945192931        2.909823151479798       11.667268814861398        0.360296303098564       -0.071703471205358       -0.146051837413942
Mo         23.139761075637942        3.861861375652669       10.000008917160937       -0.016267891187332        0.027541155142948        0.000000000000000
Se         23.156950444454544        5.776828230535854        8.332207287460074        0.169433974225776        0.037662307257458        0.216071235296551
Se         23.156950444454544        5.776828230535854       11.667810546861798        0.169433974225776        0.037662307257458       -0.216071235296551
