# total energy = -38122.75727759097 eV 

 CRYSTAL
 PRIMVEC
       26.555490215667398        0.000000000000000        0.000000000000000
       -3.319436276958425        5.749422964633285        0.000000000000000
        0.000000000000000        0.000000000000000       20.000028456517960
 PRIMCOORD
48 1
Mo          1.636211218540303        0.941522250047466       10.000008917160937        0.035194304230729       -0.061530639894226        0.000000000000000
Se          1.642783702368681        2.846873361923559        8.330515702733337        0.000575413144475        0.000605237954466        0.000852321078613
Se          1.642783702368681        2.846873361923559       11.669499476039515        0.000575413144475        0.000605237954466       -0.000852321078613
Mo         -0.023506919938909        3.816236387913130       10.000008917160937        0.035155994776517       -0.061526526127331        0.000000000000000
Se         -0.016934436110531        5.721587499789223        8.330515702733337        0.000585954672145        0.000607809058776        0.000858234618525
Se         -0.016934436110531        5.721587499789223       11.669499476039515        0.000585954672145        0.000607809058776       -0.000858234618525
Mo          4.992514482565140        0.877669573823894       10.000008917160937        0.034584695398937       -0.076074091421148        0.000000000000000
Se          5.004376820044478        2.773856386026559        8.330515702733337       -0.124063753358743        0.220328212701859       -0.002035800392295
Se          5.004376820044478        2.773856386026559       11.669499476039515       -0.124063753358743        0.220328212701859        0.002035800392295
Mo          3.332793688536905        3.752386367238580       10.000008917160937        0.034595494037037       -0.076064835445634        0.000000000000000
Se          3.344658681565265        5.648573179441245        8.330515702733337       -0.124057839818831        0.220337982898236       -0.002030143962814
Se          3.344658681565265        5.648573179441245       11.669499476039515       -0.124057839818831        0.220337982898236        0.002030143962814
Mo          8.286691177230422        0.921417088405184       10.000008917160937        0.076596282706416       -0.146220501856648        0.000000000000000
Se          8.284747315346634        2.841522430645102        8.330515702733337       -0.054511525129178        0.096364475300758        0.006589740345355
Se          8.284747315346634        2.841522430645102       11.669499476039515       -0.054511525129178        0.096364475300758       -0.006589740345355
Mo          6.626973038751209        3.796133881819870       10.000008917160937        0.076604510240207       -0.146203789678636        0.000000000000000
Se          6.625026521318400        5.716239224059787        8.330515702733337       -0.054503040484956        0.096376302380582        0.006601310314748
Se          6.625026521318400        5.716239224059787       11.669499476039515       -0.054503040484956        0.096376302380582       -0.006601310314748
Mo         11.559798745958593        1.001665124287910       10.000008917160937       -0.009350077932079        0.001979493207916        0.000000000000000
Se         11.547389365380811        2.939897244149042        8.330515702733337        0.112649849997394       -0.179937192440684       -0.003521127351917
Se         11.547389365380811        2.939897244149042       11.669499476039515        0.112649849997394       -0.179937192440684        0.003521127351917
Mo          9.900080607479380        3.876379262153574       10.000008917160937       -0.009288114318219        0.001976407882745        0.000000000000000
Se          9.887668571352577        5.814611382014706        8.330515702733337        0.112707699844359       -0.179922794256551       -0.003513414038989
Se          9.887668571352577        5.814611382014706       11.669499476039515        0.112707699844359       -0.179922794256551        0.003513414038989
Mo         14.887132625707155        0.987989046826841       10.000008917160937       -0.090300525786704        0.144371363637226        0.000000000000000
Se         14.884601887489605        2.909098186596911        8.330515702733337        0.092481850682919       -0.166223950495313        0.006535490044424
Se         14.884601887489605        2.909098186596911       11.669499476039515        0.092481850682919       -0.166223950495313       -0.006535490044424
Mo         13.227411831678923        3.862705840241527       10.000008917160937       -0.090239076393706        0.144422271502555        0.000000000000000
Se         13.224891715657456        5.783812324462574        8.330515702733337        0.092432742590607       -0.166203124550406        0.006539089590457
Se         13.224891715657456        5.783812324462574       11.669499476039515        0.092432742590607       -0.166203124550406       -0.006539089590457
Mo         18.255855892505860        0.902618456881513       10.000008917160937       -0.037193852052260        0.047057893735816        0.000000000000000
Se         18.267505786063474        2.799182357045241        8.330515702733337       -0.062268546831065        0.127361965967023       -0.002256915362916
Se         18.267505786063474        2.799182357045241       11.669499476039515       -0.062268546831065        0.127361965967023        0.002256915362916
Mo         16.596135098477625        3.777332594747178       10.000008917160937       -0.037169940782181        0.047042981330821        0.000000000000000
Se         16.607784992035239        5.673896494910905        8.330515702733337       -0.062214810750995        0.127376621261587       -0.002247402276970
Se         16.607784992035239        5.673896494910905       11.669499476039515       -0.062214810750995        0.127376621261587        0.002247402276970
Mo         21.585869221217184        0.884300479730746       10.000008917160937        0.081460297839207       -0.144587593509658        0.000000000000000
Se         21.592938292712596        2.788788538174829        8.330515702733337       -0.121444312288182        0.205557989774836        0.003257846270620
Se         21.592938292712596        2.788788538174829       11.669499476039515       -0.121444312288182        0.205557989774836       -0.003257846270620
Mo         19.926148427188952        3.759014617596410       10.000008917160937        0.081568284220208       -0.144557768699668        0.000000000000000
Se         19.933217498684364        5.663502676040494        8.330515702733337       -0.121386976662079        0.205562360652162        0.003266588025273
Se         19.933217498684364        5.663502676040494       11.669499476039515       -0.121386976662079        0.205562360652162       -0.003266588025273
Mo         24.859980587475508        0.962806475455323       10.000008917160937        0.047191848270343       -0.097114980648713        0.000000000000000
Se         24.851161509174887        2.894808677311860        8.330515702733337        0.087376408855462       -0.138078842950054        0.000317274271797
Se         24.851161509174887        2.894808677311860       11.669499476039515        0.087376408855462       -0.138078842950054       -0.000317274271797
Mo         23.200259793447277        3.837520613320988       10.000008917160937        0.047242241914811       -0.097066129666832        0.000000000000000
Se         23.191451337342738        5.769522815177525        8.330515702733337        0.087314702352033       -0.138064444765920        0.000311874952747
Se         23.191451337342738        5.769522815177525       11.669499476039515        0.087314702352033       -0.138064444765920       -0.000311874952747
