# total energy = -38122.80890754159 eV 

 CRYSTAL
 PRIMVEC
       26.555490215667398        0.000000000000000        0.000000000000000
       -3.319436276958425        5.749422964633285        0.000000000000000
        0.000000000000000        0.000000000000000       20.000028456517960
 PRIMCOORD
48 1
Mo          1.669232970623486        0.884327035220962       10.000008917160937       -0.217282482536776        0.367494366723557        0.000000000000000
Se          1.674217436136967        2.792426640334376        8.330515702733337        0.012698169963964        0.010106753930377        0.006424675448683
Se          1.674217436136967        2.792426640334376       11.669499476039515        0.012698169963964        0.010106753930377       -0.006424675448683
Mo          0.009514832144274        3.759041173086626       10.000008917160937       -0.217256257272819        0.367525991306564        0.000000000000000
Se          0.014499297657754        5.667143433749062        8.330515702733337        0.012700226847412        0.010118066789339        0.006431617430318
Se          0.014499297657754        5.667143433749062       11.669499476039515        0.012700226847412        0.010118066789339       -0.006431617430318
Mo          5.000340385531696        0.864112996068795       10.000008917160937        0.006661988376453        0.014610300238970        0.000000000000000
Se          5.003718243887129        2.774995616556811        8.330515702733337       -0.025748581218335        0.043196095062885       -0.002531766413606
Se          5.003718243887129        2.774995616556811       11.669499476039515       -0.025748581218335        0.043196095062885        0.002531766413606
Mo          3.340622247052484        3.738827133934460       10.000008917160937        0.006674072566708        0.014623927091811        0.000000000000000
Se          3.344000105407917        5.649709754422476        8.330515702733337       -0.025744724561871        0.043203294154952       -0.002527395536279
Se          3.344000105407917        5.649709754422476       11.669499476039515       -0.025744724561871        0.043203294154952        0.002527395536279
Mo          8.320055495137385        0.863632341695892       10.000008917160937        0.017351354543373       -0.027122579361355        0.000000000000000
Se          8.321019459432213        2.778694796343854        8.330515702733337       -0.025288353546928        0.041239998904186       -0.001156482718432
Se          8.321019459432213        2.778694796343854       11.669499476039515       -0.025288353546928        0.041239998904186        0.001156482718432
Mo          6.660337356658173        3.738346479561557       10.000008917160937        0.017360353408456       -0.027106638514635        0.000000000000000
Se          6.661301320953001        5.653411589758540        8.330515702733337       -0.025279354681844        0.041251568873579       -0.001147740963779
Se          6.661301320953001        5.653411589758540       11.669499476039515       -0.025279354681844        0.041251568873579        0.001147740963779
Mo         11.628309255165993        0.883001916259200       10.000008917160937        0.010736931596646       -0.021272545725854        0.000000000000000
Se         11.626649537027514        2.802613326381106        8.330515702733337       -0.018219359358274        0.029526304780345       -0.000177406197358
Se         11.626649537027514        2.802613326381106       11.669499476039515       -0.018219359358274        0.029526304780345        0.000177406197358
Mo          9.968591116686779        3.757716054124864       10.000008917160937        0.010778583486460       -0.021249920007931        0.000000000000000
Se          9.966928742999279        5.677327464246771        8.330515702733337       -0.018223216014738        0.029535560755859       -0.000191290160630
Se          9.966928742999279        5.677327464246771       11.669499476039515       -0.018223216014738        0.029535560755859        0.000191290160630
Mo         14.927863436599948        0.917431109323813       10.000008917160937        0.003824517660443       -0.008766951474675        0.000000000000000
Se         14.924023512714763        2.840829332350473        8.330515702733337       -0.006576884823807        0.011465068337108        0.000203374350885
Se         14.924023512714763        2.840829332350473       11.669499476039515       -0.006576884823807        0.011465068337108       -0.000203374350885
Mo         13.268150609218777        3.792145247189477       10.000008917160937        0.003721930598492       -0.008728899130894        0.000000000000000
Se         13.264302718686528        5.715546125765159        8.330515702733337       -0.006591540118372        0.011478438079518        0.000212630326399
Se         13.264302718686528        5.715546125765159       11.669499476039515       -0.006591540118372        0.011478438079518       -0.000212630326399
Mo         18.223646738423277        0.958403575177566       10.000008917160937        0.000364839701524        0.000124698559013        0.000000000000000
Se         18.218595884184257        2.883891715284199        8.330515702733337        0.005841806101710       -0.008510612375014       -0.000491338033553
Se         18.218595884184257        2.883891715284199       11.669499476039515        0.005841806101710       -0.008510612375014        0.000491338033553
Mo         16.563933911042106        3.833117713043230       10.000008917160937        0.000268937510778        0.000130097878063        0.000000000000000
Se         16.558875090156022        5.758608508698885        8.330515702733337        0.005876258899457       -0.008488757988383       -0.000456628125375
Se         16.558875090156022        5.758608508698885       11.669499476039515        0.005876258899457       -0.008488757988383        0.000456628125375
Mo         21.521509335130496        0.995780427656118       10.000008917160937        0.008376143619625       -0.014885665510522        0.000000000000000
Se         21.516519558518969        2.921149068056780        8.330515702733337        0.021778281943541       -0.036842896314008       -0.002557477456701
Se         21.516519558518969        2.921149068056780       11.669499476039515        0.021778281943541       -0.036842896314008        0.002557477456701
Mo         19.861788541102261        3.870494565521782       10.000008917160937        0.008435021908313       -0.014855326479670        0.000000000000000
Se         19.856806731137802        5.795863205922445        8.330515702733337        0.021723003200886       -0.036812043062293       -0.002553363689806
Se         19.856806731137802        5.795863205922445       11.669499476039515        0.021723003200886       -0.036812043062293        0.002553363689806
Mo         24.826780913607880        1.020317700615394       10.000008917160937       -0.023483438321629       -0.008182282354685        0.000000000000000
Se         24.823121567056162        2.943378668916316        8.330515702733337        0.132232923081449       -0.241270885744800        0.014591531177511
Se         24.823121567056162        2.943378668916316       11.669499476039515        0.132232923081449       -0.241270885744800       -0.014591531177511
Mo         23.167060119579645        3.895031838481059       10.000008917160937       -0.023451299517760       -0.008187424563304        0.000000000000000
Se         23.163400773027927        5.818095462331001        8.330515702733337        0.132280488511176       -0.241272171296954        0.014588960073201
Se         23.163400773027927        5.818095462331001       11.669499476039515        0.132280488511176       -0.241272171296954       -0.014588960073201
