# total energy = -38122.71140734051 eV 

 CRYSTAL
 PRIMVEC
       26.555490215667398        0.000000000000000        0.000000000000000
       -3.319436276958425        5.749422964633285        0.000000000000000
        0.000000000000000        0.000000000000000       20.000028456517960
 PRIMCOORD
48 1
Mo          1.658671852164715        0.902618456881513       10.000008917160937       -0.065473942573770        0.090901135753413        0.000000000000000
Se          1.670319090173307        2.799182357045241        8.330515702733337       -0.056208453973475        0.125317423820075       -0.000724794304860
Se          1.670319090173307        2.799182357045241       11.669499476039515       -0.056208453973475        0.125317423820075        0.000724794304860
Mo         -0.001046286314497        3.777332594747178       10.000008917160937       -0.065528964205994        0.090902935526430        0.000000000000000
Se          0.010600951694094        5.673896494910905        8.330515702733337       -0.056200740660546        0.125331822004208       -0.000715795439776
Se          0.010600951694094        5.673896494910905       11.669499476039515       -0.056200740660546        0.125331822004208        0.000715795439776
Mo          4.988685180876040        0.884300479730746       10.000008917160937        0.068457709124993       -0.122792342277674        0.000000000000000
Se          4.995756907920472        2.788788538174829        8.330515702733337       -0.124427307508112        0.208146063372820        0.003668194518423
Se          4.995756907920472        2.788788538174829       11.669499476039515       -0.124427307508112        0.208146063372820       -0.003668194518423
Mo          3.328967042396827        3.759014617596410       10.000008917160937        0.068468507763093       -0.122765345682424        0.000000000000000
Se          3.336038769441260        5.663502676040494        8.330515702733337       -0.124423707962078        0.208154290906611        0.003675907831352
Se          3.336038769441260        5.663502676040494       11.669499476039515       -0.124423707962078        0.208154290906611       -0.003675907831352
Mo          8.262796547134363        0.962806475455323       10.000008917160937        0.050531712768438       -0.104467567642709        0.000000000000000
Se          8.253982779931784        2.894808677311860        8.330515702733337        0.032464562785289       -0.038312282426911        0.001420020910160
Se          8.253982779931784        2.894808677311860       11.669499476039515        0.032464562785289       -0.038312282426911       -0.001420020910160
Mo          6.603078408655151        3.837520613320988       10.000008917160937        0.050540454523090       -0.104459597219350        0.000000000000000
Se          6.594264641452571        5.769522815177525        8.330515702733337        0.032462763012272       -0.038304312003551        0.001419506689298
Se          6.594264641452571        5.769522815177525       11.669499476039515        0.032462763012272       -0.038304312003551       -0.001419506689298
Mo         11.554670880797948        1.010545280216029       10.000008917160937       -0.057190358709289        0.090702646500716        0.000000000000000
Se         11.544478883653175        2.944934820642954        8.330515702733337        0.130428522077013       -0.226975031562886        0.000035481239472
Se         11.544478883653175        2.944934820642954       11.669499476039515        0.130428522077013       -0.226975031562886       -0.000035481239472
Mo          9.894952742318734        3.885262073630715       10.000008917160937       -0.057189330267565        0.090705474715457        0.000000000000000
Se          9.884760745173962        5.819648958508618        8.330515702733337        0.130461946433037       -0.226962176041339        0.000050136534036
Se          9.884760745173962        5.819648958508618       11.669499476039515        0.130461946433037       -0.226962176041339       -0.000050136534036
Mo         14.909101982762579        0.949929718249746       10.000008917160937       -0.082941253921503        0.129512951832385        0.000000000000000
Se         14.914282958903657        2.857700035284486        8.330515702733337        0.028208870932136       -0.039640514913220        0.005142465729514
Se         14.914282958903657        2.857700035284486       11.669499476039515        0.028208870932136       -0.039640514913220       -0.005142465729514
Mo         13.249381188734343        3.824646511664433       10.000008917160937       -0.082839181080414        0.129531978004276        0.000000000000000
Se         13.254562164875420        5.732414173150151        8.330515702733337        0.028221212232822       -0.039645400011408        0.005121896895038
Se         13.254562164875420        5.732414173150151       11.669499476039515        0.028221212232822       -0.039645400011408       -0.005121896895038
Mo         18.269215959633364        0.879475347158559       10.000008917160937        0.020201937891361       -0.046068532797505        0.000000000000000
Se         18.281535051544409        2.774881427948884        8.330515702733337       -0.118618154431133        0.213926162971101       -0.003059614128355
Se         18.281535051544409        2.774881427948884       11.669499476039515       -0.118618154431133        0.213926162971101        0.003059614128355
Mo         16.609503132252193        3.754189485024224       10.000008917160937        0.020106549921477       -0.046038193766652        0.000000000000000
Se         16.621814257516178        5.649598221363570        8.330515702733337       -0.118584215854247        0.213945960474284       -0.003024647109745
Se         16.621814257516178        5.649598221363570       11.669499476039515       -0.118584215854247        0.213945960474284        0.003024647109745
Mo         21.568908229616440        0.913684129654382       10.000008917160937        0.091904123544565       -0.167893111413068        0.000000000000000
Se         21.568517863910266        2.831078156343279        8.330515702733337       -0.066140887031665        0.115373420792492        0.005217027754491
Se         21.568517863910266        2.831078156343279       11.669499476039515       -0.066140887031665        0.115373420792492       -0.005217027754491
Mo         19.909187435588201        3.788400923069068       10.000008917160937        0.091961459170668       -0.167871257026436        0.000000000000000
Se         19.908807692078121        5.705794949757966        8.330515702733337       -0.066186652688375        0.115402731381621        0.005220884410955
Se         19.908807692078121        5.705794949757966       11.669499476039515       -0.066186652688375        0.115402731381621       -0.005220884410955
Mo         24.840260480441351        0.996962146970715       10.000008917160937       -0.018643334458917       -0.008402625994013        0.000000000000000
Se         24.827981221765629        2.934957922968927        8.330515702733337        0.170871221534810       -0.288665594145166        0.007438976098797
Se         24.827981221765629        2.934957922968927       11.669499476039515        0.170871221534810       -0.288665594145166       -0.007438976098797
Mo         23.180539686413120        3.871676284836379       10.000008917160937       -0.018659789526498       -0.008369972969282        0.000000000000000
Se         23.168271049933484        5.809674716383613        8.330515702733337        0.170817999675602       -0.288656852390513        0.007436662104918
Se         23.168271049933484        5.809674716383613       11.669499476039515        0.170817999675602       -0.288656852390513       -0.007436662104918
