# total energy = -38122.60056239866 eV 

 CRYSTAL
 PRIMVEC
       26.555490215667398        0.000000000000000        0.000000000000000
       -3.319436276958425        5.749422964633285        0.000000000000000
        0.000000000000000        0.000000000000000       20.000028456517960
 PRIMCOORD
48 1
Mo          1.634851577441262        0.943875066480574       10.088590065873339        0.325185302647464        0.187745893339193       -1.452354089514906
Se          1.611559756973099        2.846905228511817        8.406650293181656        0.035695412460659        0.020603287274081        0.016144992401336
Se          1.658366464027235        2.873930750904302       11.745639377585876       -0.026126276441407       -0.015089811192700        0.032306182759821
Mo         -0.024866561037951        3.818589204346238       10.088590065873339        0.325227211647710        0.187770061719703       -1.452371058803349
Se         -0.048158381506113        5.721622021926503        8.406650293181656        0.035690784472902        0.020611514807871        0.016144992401336
Se         -0.001351674451977        5.748644888769967       11.745639377585876       -0.026131161539595       -0.015081069438047        0.032306182759821
Mo          4.954290509948708        0.943875066480574       10.039579253131302        0.021617587924195        0.012468827459553       -0.117774317996742
Se          4.902714436851838        2.830576257578204        8.335542657031162        0.104693310601087        0.060444862544307        0.046914683225775
Se          5.006089649163388        2.890259721837916       11.674529085886363       -0.106925029141769       -0.061733242913818        0.017222542217465
Mo          3.294569715920474        3.818589204346238       10.039579253131302        0.021607046396526        0.012487082300151       -0.117774317996742
Se          3.242996298372626        5.705290395443869        8.335542657031162        0.104693567711518        0.060444862544307        0.046922653649134
Se          3.346368855135154        5.764973859703581       11.674529085886363       -0.106917830049702       -0.061729129146923        0.017214571794105
Mo          8.273726786907133        0.943875066480574        9.940561796764143       -0.012826210958579       -0.007405294632342        0.019687974139884
Se          8.259187656014054        2.851958738299859        8.258082947621082        0.022703622384545        0.013106461328319       -0.005058390618592
Se          8.288488983918022        2.868877241116261       11.597069376476282       -0.034140922795110       -0.019718056060306       -0.010514788184301
Mo          6.614008648427920        3.818589204346238        9.940561796764143       -0.012809755890998       -0.007395781546396        0.019680003716524
Se          6.599469517534842        5.726672876165523        8.258082947621082        0.022702336832391        0.013108518211767       -0.005058390618592
Se          6.628770845438809        5.743591378981924       11.597069376476282       -0.034146836335022       -0.019708028753498       -0.010514788184301
Mo         11.593160408316535        0.943875066480574        9.916667166668086        0.010720476529065        0.006149567287562        0.086072601860094
Se         11.634170051856591        2.884032459382342        8.272160012984408       -0.075794612382701       -0.043760195348398       -0.020271357707719
Se         11.552371175345272        2.836803520033778       11.611149097388628        0.088940154496525        0.051349581049303       -0.042922529564350
Mo          9.933444925386345        3.818589204346238        9.916667166668086        0.010685766620886        0.006209474017974        0.086072601860094
Se          9.974457224475421        5.758746597248006        8.272160012984408       -0.075810039008558       -0.043768937103051       -0.020246675106347
Se          9.892655692415079        5.711517657899442       11.611149097388628        0.088929355858425        0.051343410398960       -0.042946955055290
Mo         14.912601996373002        0.943875066480574        9.998096921865409        0.001868935722606        0.001079092478715        0.044679365139059
Se         14.957472808190415        2.886260465011437        8.359984330225663       -0.096948887310317       -0.055994795205352       -0.003622685972144
Se         14.867943628477317        2.834572858855662       11.698970759080861        0.084412182696992        0.048713427800730       -0.026741027481819
Mo         13.252881202344769        3.818589204346238        9.998096921865409        0.001883076796308        0.001087062902074        0.044676279813888
Se         13.297762636358270        5.760977258426123        8.359984330225663       -0.096967399261345       -0.055962656401483       -0.003622685972144
Se         13.208230801096146        5.709286996721326       11.698970759080861        0.084393156525101        0.048746337935892       -0.026741027481819
Mo         18.232035617782408        0.943875066480574       10.081937915574313       -0.007183922551290       -0.004143591705257       -0.054210191704099
Se         18.224207059266828        2.855830528773303        8.410567227988468        0.014178354714967        0.008185881900719        0.023077460951153
Se         18.240095209062861        2.865002795093795       11.749551001294643       -0.014248031641756       -0.008225991127947        0.018163052173895
Mo         16.572314823754173        3.818589204346238       10.081937915574313       -0.007180323005257       -0.004149762355600       -0.054210191704099
Se         16.564483609689571        5.730547322187989        8.410567227988468        0.014190181794791        0.008192566771923        0.023059720331417
Se         16.580374415034626        5.739716932959460       11.749551001294643       -0.014235690341070       -0.008219049146312        0.018179250131045
Mo         21.551469239191810        0.943875066480574       10.062249675128417        0.015213738420420        0.008783663652687       -0.067513599622529
Se         21.500968663448678        2.831197656049250        8.359984330225663        0.119533467565330        0.068977329305952        0.056417998974703
Se         21.602198192150798        2.889638323366869       11.698970759080861       -0.109535214236816       -0.063250965787740        0.024650719678161
Mo         19.891756411810640        3.818589204346238       10.062249675128417        0.015141490389322        0.008742011762872       -0.067493802119346
Se         19.841258491616529        5.705911793914915        8.359984330225663        0.119502871424047        0.069030294054728        0.056417998974703
Se         19.942477398122566        5.764352461232534       11.698970759080861       -0.109544727322761       -0.063234767830590        0.024650719678161
Mo         24.870910827248277        0.943875066480574        9.963896106016650       -0.015429711182421       -0.008885993604207       -0.044457735947577
Se         24.841702443560067        2.843490192470083        8.272160012984408        0.432465915515243        0.249684310376913        0.580260704540623
Se         24.900342277054303        2.877345786946037       11.611149097388628       -0.778050616865041       -0.449207661226823        0.879854263332634
Mo         23.211190033220042        3.818589204346238        9.963896106016650       -0.015410427900100       -0.008919417960231       -0.044457735947577
Se         23.181978993982810        5.718204330335747        8.272160012984408        0.432492397889631        0.249699479892339        0.580254276779850
Se         23.240621483026068        5.752059924811701       11.611149097388628       -0.778004336987469       -0.449180921742004        0.879845521577981
