# total energy = -38122.84763833805 eV 

 CRYSTAL
 PRIMVEC
       53.110927513609894        0.000000000000000        0.000000000000000
       -1.659716484800309        2.874735173529163        0.000000000000000
        0.000000000000000        0.000000000000000       19.999981973800079
 PRIMCOORD
48 1
Mo          1.598320252594576        0.951726576672884        9.999996297992791        0.300411684183307       -0.140581041664100        0.000000000000000
Se          1.633320353826045        2.857575032849515        8.330507402529976       -0.215604322753938        0.062557796065888        0.050399300896497
Se          1.633320353826045        2.857575032849515       11.669490504548355       -0.215604322753938        0.062557796065888       -0.050399300896497
Mo          4.948116739454726        0.933196174063386        9.999996297992791        0.435025192744960       -0.142288512036066        0.000000000000000
Se          4.984736723975359        2.839379229083353        8.330640179848761       -0.219495689126430        0.072122561207814        0.048351930534809
Se          4.984736723975359        2.839379229083353       11.669357727229571       -0.219495689126430        0.072122561207814       -0.048351930534809
Mo          8.298784245526099        0.916163499609771        9.999996297992791        0.392338690556227       -0.120432068521515        0.000000000000000
Se          8.331882975552579        2.824136392886947        8.330757023889291       -0.201390486799500        0.060438434783533        0.044322495860895
Se          8.331882975552579        2.824136392886947       11.669240883189042       -0.201390486799500        0.060438434783533       -0.044322495860895
Mo         11.645930497103317        0.903023856142904        9.999996297992791        0.303501637342514       -0.077501825644237        0.000000000000000
Se         11.670876699756461        2.813986894639096        8.330836690280561       -0.155201883430739        0.040369937205837        0.034160463187863
Se         11.670876699756461        2.813986894639096       11.669155905705018       -0.155201883430739        0.040369937205837       -0.034160463187863
Mo         14.985657152106887        0.895625503940258        9.999996297992791        0.159545249940848       -0.025960183103011        0.000000000000000
Se         14.998977372727300        2.810359418289916        8.330868556837070       -0.087004370061872        0.014511826943915        0.018447416310530
Se         14.998977372727300        2.810359418289916       11.669129350241263       -0.087004370061872        0.014511826943915       -0.018447416310530
Mo         18.315128087007576        0.894998794995597        9.999996297992791        0.000014141073702        0.031625868559517        0.000000000000000
Se         18.314958132039536        2.813763828743538        8.330852623558815       -0.005135266637447       -0.013999920075885       -0.001852737765456
Se         18.314958132039536        2.813763828743538       11.669150594612269       -0.005135266637447       -0.013999920075885        0.001852737765456
Mo         21.632925240040777        0.901239328978446        9.999996297992791       -0.171359474243192        0.087127268847868        0.000000000000000
Se         21.619296976040786        2.823722127652340        8.330788890445799        0.079451236931731       -0.041118385670344       -0.024447345327276
Se         21.619296976040786        2.823722127652340       11.669209016632532        0.079451236931731       -0.041118385670344        0.024447345327276
Mo         24.939276988194791        0.913465464492079        9.999996297992791       -0.321140184237262        0.128165693174185        0.000000000000000
Se         24.914134275109852        2.838826875437211        8.330682668590772        0.154365246088414       -0.062929834859479       -0.045481806794067
Se         24.914134275109852        2.838826875437211       11.669320549580311        0.154365246088414       -0.062929834859479        0.045481806794067
Mo         28.236026280654350        0.929961718577807        9.999996297992791       -0.422104365147790        0.152140212418937        0.000000000000000
Se         28.202906306256860        2.856969568275860        8.330555202364739        0.208430170399024       -0.076132455488975       -0.060930801258810
Se         28.202906306256860        2.856969568275860       11.669448015806344        0.208430170399024       -0.076132455488975        0.060930801258810
Mo         31.526354461977508        0.948412454796035        9.999996297992791       -0.461713255478002        0.155696049679033        0.000000000000000
Se         31.489925676795924        2.875590259462132        8.330417113953203        0.232748446289962       -0.078627712221385       -0.067317938584573
Se         31.489925676795924        2.875590259462132       11.669580793125128        0.232748446289962       -0.078627712221385        0.067317938584573
Mo         34.814356384675570        0.966231170976851        9.999996297992791       -0.435492619508435        0.138109181980906        0.000000000000000
Se         34.779743993214950        2.892086513547859        8.330294958819922        0.223270070252837       -0.069927609458758       -0.063029850817120
Se         34.779743993214950        2.892086513547859       11.669708259351161        0.223270070252837       -0.069927609458758        0.063029850817120
Mo         38.104434944639422        0.980905720248861        9.999996297992791       -0.348299787500674        0.100951325388980        0.000000000000000
Se         38.076525152231014        2.904132071907946        8.330199359150397        0.181507365842521       -0.051286588993719       -0.049221220901865
Se         38.076525152231014        2.904132071907946       11.669798547927934        0.181507365842521       -0.051286588993719        0.049221220901865
Mo         41.400722172029610        0.990380709717289        9.999996297992791       -0.213786552007092        0.048796731580359        0.000000000000000
Se         41.383445187309427        2.910032695954708        8.330151559315636        0.114258075743013       -0.025574003235718       -0.029011569697575
Se         41.383445187309427        2.910032695954708       11.669846347762697        0.114258075743013       -0.025574003235718        0.029011569697575
Mo         44.706463144517215        0.993323055101543        9.999996297992791       -0.050262003926367       -0.010092869967106        0.000000000000000
Se         44.702262070150887        2.908970477404436        8.330151559315636        0.032198967710113        0.003501329848734       -0.006463242013326
Se         44.702262070150887        2.908970477404436       11.669846347762697        0.032198967710113        0.003501329848734        0.006463242013326
Mo         48.023585788770994        0.989318491167017        9.999996297992791        0.119099979378742       -0.066224447921725        0.000000000000000
Se         48.033071400424923        2.901083504668664        8.330199359150397       -0.051788725665373        0.030292750975019        0.014451663103072
Se         48.033071400424923        2.901083504668664       11.669798547927934       -0.051788725665373        0.030292750975019       -0.014451663103072
Mo         51.352414081448771        0.978935304838106        9.999996297992791        0.275645521921647       -0.101118447169100        0.000000000000000
Se         51.374263917027868        2.887487107225180        8.330294958819922       -0.071321147994530        0.056595405172061        0.061264273487758
Se         51.374263917027868        2.887487107225180       11.669708259351161       -0.071321147994530        0.056595405172061       -0.061264273487758
