# total energy = -38122.607965939256 eV 

 CRYSTAL
 PRIMVEC
       53.110927513609894        0.000000000000000        0.000000000000000
       -1.659716484800309        2.874735173529163        0.000000000000000
        0.000000000000000        0.000000000000000       19.999981973800079
 PRIMCOORD
48 1
Mo          1.688268919431626        0.893798488033790        9.999996297992791        0.525289723071331        0.095417023362692        0.000000000000000
Se          1.718398748610097        2.816366264191705        8.336439893133248       -0.192139139272907       -0.000767988857260       -0.016042919560247
Se          1.718398748610097        2.816366264191705       11.663558013945085       -0.192139139272907       -0.000767988857260        0.016042919560247
Mo          5.026641245783598        0.914437394465578        9.999996297992791       -0.368600712907953        0.243745573642733        0.000000000000000
Se          4.996176817761791        2.848365598018655        8.333162948905656        0.189679106669537       -0.107004990485796       -0.064760204017441
Se          4.996176817761791        2.848365598018655       11.666840269265426        0.189679106669537       -0.107004990485796        0.064760204017441
Mo          8.319359418844870        0.953649192248877        9.999996297992791       -0.924836504559357        0.272925293562152        0.000000000000000
Se          8.247595933588482        2.887965105572803        8.328213010461390        0.485887035306744       -0.134336600627516       -0.104043592542066
Se          8.247595933588482        2.887965105572803       11.671790207709694        0.485887035306744       -0.134336600627516        0.104043592542066
Mo         11.583286158101014        0.986689500255093        9.999996297992791       -0.862321388825008        0.120870441806292        0.000000000000000
Se         11.515569725521162        2.910186717644498        8.324707689245491        0.463693262906780       -0.073850857524688       -0.063688310630793
Se         11.515569725521162        2.910186717644498       11.675290217832842        0.463693262906780       -0.073850857524688        0.063688310630793
Mo         14.853437498061753        0.992722901620639        9.999996297992791       -0.266901710385758       -0.101264743004313        0.000000000000000
Se         14.832559592456155        2.901003838277394        8.324867022028030        0.144942405904375        0.033945004646723        0.016848189429995
Se         14.832559592456155        2.901003838277394       11.675136196143052        0.144942405904375        0.033945004646723       -0.016848189429995
Mo         18.160909886786307        0.967930720657286        9.999996297992791        0.435683909669065       -0.239519706599571        0.000000000000000
Se         18.200105751291353        2.866216180755980        8.328579475861233       -0.238190188561107        0.110962948459904        0.049916961728027
Se         18.200105751291353        2.866216180755980       11.671418431217099       -0.238190188561107        0.110962948459904       -0.049916961728027
Mo         21.513239764888855        0.927964747703295        9.999996297992791        0.849153220993259       -0.226058689986966        0.000000000000000
Se         21.587855306952726        2.827763869236126        8.333513481027248       -0.455029669825349        0.112731868224869        0.032909878051702
Se         21.587855306952726        2.827763869236126       11.666489737143836       -0.455029669825349        0.112731868224869       -0.032909878051702
Mo         24.889676692989831        0.898036740049376        9.999996297992791        0.763848865100857       -0.074041376354025        0.000000000000000
Se         24.952719363948486        2.809913286498802        8.336546114988273       -0.398116990381491        0.048021800741464        0.008243474637252
Se         24.952719363948486        2.809913286498802       11.663446480997306       -0.398116990381491        0.048021800741464       -0.008243474637252
Mo         28.254264573162523        0.897027632426617        9.999996297992791        0.169700083521813        0.131271330069681        0.000000000000000
Se         28.266018021421285        2.823923949176892        8.335770695446577       -0.089714571114559       -0.048075793931964       -0.026533282253608
Se         28.266018021421285        2.823923949176892       11.664227211631758       -0.089714571114559       -0.048075793931964        0.026533282253608
Mo         31.578504081703123        0.925569444872431        9.999996297992791       -0.586845302677359        0.273103985311665        0.000000000000000
Se         31.531628377079613        2.860958198932132        8.331675842935276        0.304415407814125       -0.123795844289688       -0.082621665655827
Se         31.531628377079613        2.860958198932132       11.668316753050304        0.304415407814125       -0.123795844289688        0.082621665655827
Mo         34.859373206836111        0.965668195145206        9.999996297992791       -0.977239209933849        0.239307076273172        0.000000000000000
Se         34.783504246882913        2.897647227658534        8.326842748531538        0.517735304389036       -0.124708329209145       -0.100886533560380
Se         34.783504246882913        2.897647227658534       11.673160469639544        0.517735304389036       -0.124708329209145        0.100886533560380
Mo         38.121196753362717        0.992011215191957        9.999996297992791       -0.721812338081575        0.050898866463841        0.000000000000000
Se         38.064277772346379        2.910845293145666        8.324319979474641        0.388879012597308       -0.042193878603026       -0.038411527053259
Se         38.064277772346379        2.910845293145666       11.675677927603690        0.388879012597308       -0.042193878603026        0.038411527053259
Mo         41.400313217887749        0.987985406886425        9.999996297992791       -0.043070882283010       -0.159010460244463        0.000000000000000
Se         41.398332180291490        2.892229913052146        8.325700863589995        0.021321910928598        0.064186847756414        0.034291846618080
Se         41.398332180291490        2.892229913052146       11.674297043488336        0.021321910928598        0.064186847756414       -0.034291846618080
Mo         44.722173356875743        0.956129472563762        9.999996297992791        0.607065752519750       -0.255596050515842        0.000000000000000
Se         44.776442102609145        2.853538602358481        8.330114381666377       -0.330374048254550        0.119880823757549        0.048018972526723
Se         44.776442102609145        2.853538602358481       11.669878214319205       -0.330374048254550        0.119880823757549       -0.048018972526723
Mo         48.085242264521540        0.916545898287869        9.999996297992791        0.885464412936054       -0.191590208502820        0.000000000000000
Se         48.161594533915107        2.819186454442678        8.334777521102071       -0.469548952971761        0.098099970709698        0.026067912373581
Se         48.161594533915107        2.819186454442678       11.665220385976260       -0.469548952971761        0.098099970709698       -0.026067912373581
Mo         51.461981924909345        0.894196819990142        9.999996297992791        0.608562392338334       -0.009364219005782        0.000000000000000
Se         51.512315150913999        2.810848038823042        8.336742625420076       -0.390009012941351       -0.018641791796331       -0.067889495072584
Se         51.512315150913999        2.810848038823042       11.663260592751008       -0.390009012941351       -0.018641791796331        0.067889495072584
