# total energy = -38122.6834419166 eV 

 CRYSTAL
 PRIMVEC
       26.555490215667398        0.000000000000000        0.000000000000000
       -3.319436276958425        5.749422964633285        0.000000000000000
        0.000000000000000        0.000000000000000       20.000028456517960
 PRIMCOORD
48 1
Mo          1.634851577441262        0.943875066480574        9.914832182294184        0.279063033769890        0.161117223115702        1.400035202140906
Se          1.627609895259449        2.856170439048064        8.241201622490982       -0.046126639754900       -0.026638183309437       -0.064509521347261
Se          1.642318981289907        2.864662884819034       11.580190706895204        0.044135833688022        0.025477843934541       -0.044051758577100
Mo         -0.024866561037951        3.818589204346238        9.914832182294184        0.279043750487568        0.161105910256740        1.400008462656086
Se         -0.032108243219763        5.730887232462750        8.241201622490982       -0.046132810405243       -0.026627641781768       -0.064509521347261
Se         -0.017399157189305        5.739379678233720       11.580190706895204        0.044132491252420        0.025483757474453       -0.044051758577100
Mo          4.954290509948708        0.943875066480574        9.903862109286091        0.014795933970119        0.008531695430352        0.058800641338355
Se          4.961848202464086        2.864715995799465        8.238267240822152       -0.017874831380795       -0.010320155588069       -0.029895258248764
Se          4.946953228002118        2.856117328067632       11.577258980775394        0.013883449050663        0.008015674795427       -0.026168956772946
Mo          3.294569715920474        3.818589204346238        9.903862109286091        0.014786420884174        0.008547636277071        0.058800641338355
Se          3.302130063984874        5.739432789214152        8.238267240822152       -0.017867118067867       -0.010315527600312       -0.029886773604543
Se          3.287235089522907        5.730834121482318       11.577258980775394        0.013890648142730        0.008019788562322       -0.026177184306736
Mo          8.273726786907133        0.943875066480574        9.916675133315151        0.003996781649182        0.002307566117814        0.008339633938429
Se          8.294243558647757        2.872199332942241        8.258157302993688       -0.037162998800545       -0.021458950788296       -0.014828586994850
Se          8.253433081284319        2.848636646473879       11.597141076299863        0.035372224648950        0.020417910653363       -0.015957816007601
Mo          6.614008648427920        3.818589204346238        9.916675133315151        0.004018378925383        0.002319907418499        0.008338862607136
Se          6.634525420168545        5.746913470807905        8.258157302993688       -0.037165569904855       -0.021454579910970       -0.014828586994850
Se          6.593714942805107        5.723350784339543       11.597141076299863        0.035368625102916        0.020424338414137       -0.015957816007601
Mo         11.593160408316535        0.943875066480574        9.950105839947655        0.004372677099237        0.002501170272322        0.011404647385834
Se         11.621590716141428        2.876766877259335        8.295945765570583       -0.052344855527527       -0.030221274275214       -0.006875390034145
Se         11.564961133256517        2.844069102156784       11.634929538876758        0.050045516943504        0.028893813120198       -0.012535676171601
Mo          9.933444925386345        3.818589204346238        9.950105839947655        0.004352622485623        0.002536394401363        0.011404647385834
Se          9.961872577662216        5.751481015125000        8.295945765570583       -0.052335599552012       -0.030215874956164       -0.006851221653636
Se          9.905240339228284        5.718783240022448       11.634929538876758        0.050072770649185        0.028909496856486       -0.012559330331249
Mo         14.912601996373002        0.943875066480574        9.995879538432400        0.003881596176115        0.002240974516196        0.009790250989873
Se         14.941932535316209        2.877290020416584        8.342285095996921       -0.053500566914666       -0.030883847855783        0.001986435189552
Se         14.883491867998588        2.843545958999536       11.681268869303098        0.049989466869556        0.028874786948307       -0.004814907040479
Mo         13.252881202344769        3.818589204346238        9.995879538432400        0.003953329986351        0.002282626406011        0.009790765210734
Se         13.282211741287973        5.752004158282248        8.342285095996921       -0.053496453147770       -0.030890789837419        0.001986435189552
Se         13.223771073970354        5.718260096865200       11.681268869303098        0.050001036838949        0.028854732334693       -0.004814907040479
Mo         18.232035617782408        0.943875066480574       10.042678278839471        0.001557832101151        0.000894230078859        0.003282785982423
Se         18.255045950054281        2.873638640511930        8.385716600244644       -0.041405320911289       -0.023905356538825        0.007525108093166
Se         18.209245696079321        2.847197338904190       11.724700373550823        0.037518839636986        0.021661553807888        0.005621205351951
Mo         16.572314823754173        3.818589204346238       10.042678278839471        0.001553204113394        0.000901943391787        0.003282785982423
Se         16.595325156026050        5.748352778377594        8.385716600244644       -0.041395550714913       -0.023899700109344        0.007504539258690
Se         16.549535524247172        5.721911476769854       11.724700373550823        0.037451476704076        0.021622730132814        0.005639203082118
Mo         21.551469239191810        0.943875066480574       10.078918556336792        0.001118173264220        0.000645604292126       -0.015086725867528
Se         21.562497734278374        2.866715624212705        8.415487960325430       -0.030725210719884       -0.017737020189804        0.003321866767928
Se         21.540679743517185        2.854117699654393       11.754479700278672        0.029703710977703        0.017143866425593        0.005559241738091
Mo         19.891756411810640        3.818589204346238       10.078918556336792        0.001023299515198        0.000590839770333       -0.015066671253914
Se         19.902776940250142        5.741432417627392        8.415487960325430       -0.030723410946868       -0.017740362625406        0.003321866767928
Se         19.880956293939928        5.728831837520057       11.754479700278672        0.029698825879515        0.017152093959383        0.005559241738091
Mo         24.870910827248277        0.943875066480574       10.095637892976576        0.001230530522547        0.000721194758826        0.039489848200681
Se         24.867240858500470        2.858236456186843        8.424240649900513       -0.716896900862594       -0.413900485516905       -0.772500631102464
Se         24.874801206564872        2.862596867680255       11.763229734304735        0.425413633504601        0.245612709592322       -0.547925211191673
Mo         23.211190033220042        3.818589204346238       10.095637892976576        0.001239786498061        0.000705253912107        0.039489848200681
Se         23.207530686668324        5.732953249601528        8.424240649900513       -0.716951665384387       -0.413932110099912       -0.772514515065736
Se         23.215080412536640        5.737313661094941       11.763229734304735        0.425438830326835        0.245627107776456       -0.547916212326590
