# total energy = -38122.85104887839 eV 

 CRYSTAL
 PRIMVEC
       26.555490215667398        0.000000000000000        0.000000000000000
       -3.319436276958425        5.749422964633285        0.000000000000000
        0.000000000000000        0.000000000000000       20.000028456517960
 PRIMCOORD
48 1
Mo          1.612770687326934        0.982122939038200       10.000008917160937       -0.017308674211834        0.019301022941298        0.000000000000000
Se          1.616127301290194        2.893042737212518        8.330515702733337        0.027593091450001       -0.049752411052216        0.002575475186868
Se          1.616127301290194        2.893042737212518       11.669499476039515        0.027593091450001       -0.049752411052216       -0.002575475186868
Mo         -0.046947451152278        3.856837076903864       10.000008917160937       -0.017274735634948        0.019337018401632        0.000000000000000
Se         -0.043590837189018        5.767756875078183        8.330515702733337        0.027599776321205       -0.049743669297564        0.002581902947642
Se         -0.043590837189018        5.767756875078183       11.669499476039515        0.027599776321205       -0.049743669297564       -0.002581902947642
Mo          4.967366433330902        0.921228544424653       10.000008917160937       -0.009480690031004        0.010899168278578        0.000000000000000
Se          4.975269347219085        2.824271984201004        8.330515702733337       -0.014408468550671        0.032524726626132        0.000061706503429
Se          4.975269347219085        2.824271984201004       11.669499476039515       -0.014408468550671        0.032524726626132       -0.000061706503429
Mo          3.307645639302669        3.795942682290318       10.000008917160937       -0.009467320288594        0.010918965781761        0.000000000000000
Se          3.315551208739873        5.698986122066668        8.330515702733337       -0.014404354783776        0.032535011043371        0.000068391374634
Se          3.315551208739873        5.698986122066668       11.669499476039515       -0.014404354783776        0.032535011043371       -0.000068391374634
Mo          8.313711388524863        0.874621003547135       10.000008917160937        0.022034106822341       -0.034052219696431        0.000000000000000
Se          8.321245181099048        2.778304430637684        8.330515702733337       -0.052564170725131        0.094189835275748       -0.002828471850927
Se          8.321245181099048        2.778304430637684       11.669499476039515       -0.052564170725131        0.094189835275748        0.002828471850927
Mo          6.653990594496629        3.749335141412800       10.000008917160937        0.022043619908286       -0.034027794205490        0.000000000000000
Se          6.661527042619835        5.653021224052370        8.330515702733337       -0.052558000074788        0.094197291478245       -0.002821015648429
Se          6.661527042619835        5.653021224052370       11.669499476039515       -0.052558000074788        0.094197291478245        0.002821015648429
Mo         11.634831283562960        0.871707866270476       10.000008917160937        0.034827150535327       -0.061997038215977        0.000000000000000
Se         11.637308910800083        2.784143982936109        8.330515702733337       -0.058059649076345        0.096083710710156        0.000401349382719
Se         11.637308910800083        2.784143982936109       11.669499476039515       -0.058059649076345        0.096083710710156       -0.000401349382719
Mo          9.975110489534726        3.746422004136141       10.000008917160937        0.034832035633515       -0.061976726491932        0.000000000000000
Se          9.977593427869891        5.658858120801773        8.330515702733337       -0.058058620634621        0.096099394446444        0.000415233345991
Se          9.977593427869891        5.658858120801773       11.669499476039515       -0.058058620634621        0.096099394446444       -0.000415233345991
Mo         14.929663898836571        0.914324116968580       10.000008917160937        0.022387119444041       -0.049902306433462        0.000000000000000
Se         14.925592942186508        2.838104739054345        8.330515702733337       -0.022462452800310        0.039951875645105        0.002918717612192
Se         14.925592942186508        2.838104739054345       11.669499476039515       -0.022462452800310        0.039951875645105       -0.002918717612192
Mo         13.269940449259314        3.789040910383266       10.000008917160937        0.022466566567206       -0.049891507795362        0.000000000000000
Se         13.265872148158275        5.712818876920010        8.330515702733337       -0.022438541530232        0.039938505902696        0.002896863225561
Se         13.265872148158275        5.712818876920010       11.669499476039515       -0.022438541530232        0.039938505902696       -0.002896863225561
Mo         18.213725607278704        0.975584977347103       10.000008917160937        0.002618926849699       -0.008463304055718        0.000000000000000
Se         18.205745682468894        2.906142560535907        8.330515702733337        0.028271862987720       -0.041118128559913       -0.000695740826162
Se         18.205745682468894        2.906142560535907       11.669499476039515        0.028271862987720       -0.041118128559913        0.000695740826162
Mo         16.554015435446559        3.850301770761789       10.000008917160937        0.002471602572762       -0.008422680607627        0.000000000000000
Se         16.546035510636749        5.780856698401571        8.330515702733337        0.028193701416710       -0.041084704203889       -0.000663087801431
Se         16.546035510636749        5.780856698401571       11.669499476039515        0.028193701416710       -0.041084704203889        0.000663087801431
Mo         21.509349576160741        1.016841586946163       10.000008917160937       -0.023699411083631        0.046390949277921        0.000000000000000
Se         21.502559337312594        2.945330497447167        8.330515702733337        0.057023751150031       -0.097059444795627       -0.002686289782609
Se         21.502559337312594        2.945330497447167       11.669499476039515        0.057023751150031       -0.097059444795627        0.002686289782609
Mo         19.849626126583484        3.891555724811827       10.000008917160937       -0.023664444065021        0.046369094891290        0.000000000000000
Se         19.842838543284358        5.820047290861853        8.330515702733337        0.057080572555272       -0.097057902133041       -0.002678062248819
Se         19.842838543284358        5.820047290861853       11.669499476039515        0.057080572555272       -0.097057902133041        0.002678062248819
Mo         24.831542313003549        1.012061598707343       10.000008917160937       -0.036280852911942        0.063260478873686        0.000000000000000
Se         24.830302171610480        2.930948043946362        8.330515702733337        0.036993048805685       -0.067609758923706       -0.000485681604072
Se         24.830302171610480        2.930948043946362       11.669499476039515        0.036993048805685       -0.067609758923706        0.000485681604072
Mo         23.171818863426296        3.886775736573008       10.000008917160937       -0.036174152083096        0.063280790597731        0.000000000000000
Se         23.170581377582245        5.805664837361048        8.330515702733337        0.037033158032914       -0.067606416488104       -0.000488766929244
Se         23.170581377582245        5.805664837361048       11.669499476039515        0.037033158032914       -0.067606416488104        0.000488766929244
