# total energy = -38122.75168592118 eV 

 CRYSTAL
 PRIMVEC
       26.555490215667398        0.000000000000000        0.000000000000000
       -3.319436276958425        5.749422964633285        0.000000000000000
        0.000000000000000        0.000000000000000       20.000028456517960
 PRIMCOORD
48 1
Mo          1.613232752856687        0.981323618782708       10.000008917160937        0.106810100779133       -0.200695774415061        0.000000000000000
Se          1.612263477463815        2.899737376295888        8.330515702733337        0.066482329683972       -0.119374059098139        0.006981062421267
Se          1.612263477463815        2.899737376295888       11.669499476039515        0.066482329683972       -0.119374059098139       -0.006981062421267
Mo         -0.046485385622526        3.856037756648373       10.000008917160937        0.106851238448085       -0.200682918893514        0.000000000000000
Se         -0.047454661015398        5.774451514161552        8.330515702733337        0.066485157898713       -0.119365317343486        0.006985176188163
Se         -0.047454661015398        5.774451514161552       11.669499476039515        0.066485157898713       -0.119365317343486       -0.006985176188163
Mo          4.981740920184643        0.896327461249422       10.000008917160937       -0.011076060255074        0.002341504694700        0.000000000000000
Se          4.993908645801461        2.791988474745817        8.330515702733337       -0.074753572247768        0.148772065773437       -0.003228278571060
Se          4.993908645801461        2.791988474745817       11.669499476039515       -0.074753572247768        0.148772065773437        0.003228278571060
Mo          3.322022781705431        3.771044254664107       10.000008917160937       -0.011063718954389        0.002352046222369        0.000000000000000
Se          3.334190507322249        5.666705268160503        8.330515702733337       -0.074748687149580        0.148779521975935       -0.003225193245889
Se          3.334190507322249        5.666705268160503       11.669499476039515       -0.074748687149580        0.148779521975935        0.003225193245889
Mo          8.305633208401257        0.888607780243727       10.000008917160937        0.073500673117728       -0.137492888277909        0.000000000000000
Se          8.311345294346646        2.795453966218962        8.330515702733337       -0.117620308848600        0.195920205270519        0.004937805826475
Se          8.311345294346646        2.795453966218962       11.669499476039515       -0.117620308848600        0.195920205270519       -0.004937805826475
Mo          6.645915069922045        3.763324573658413       10.000008917160937        0.073513014418414       -0.137473862106019        0.000000000000000
Se          6.651624500318412        5.670168104084627        8.330515702733337       -0.117610538652224        0.195928432804309        0.004944233587249
Se          6.651624500318412        5.670168104084627       11.669499476039515       -0.117610538652224        0.195928432804309       -0.004944233587249
Mo         11.577670590873737        0.970709389343506       10.000008917160937        0.041352356162513       -0.089345617646140        0.000000000000000
Se         11.567821159552745        2.904498775691557        8.330515702733337        0.049126861373705       -0.065552361255211        0.000132926092803
Se         11.567821159552745        2.904498775691557       11.669499476039515        0.049126861373705       -0.065552361255211       -0.000132926092803
Mo          9.917952452394523        3.845426182758192       10.000008917160937        0.041337700867948       -0.089290081793054        0.000000000000000
Se          9.908105676622554        5.779212913557221        8.330515702733337        0.049067725974585       -0.065544905052713        0.000123155896427
Se          9.908105676622554        5.779212913557221       11.669499476039515        0.049067725974585       -0.065544905052713       -0.000123155896427
Mo         14.874882578070668        1.009198916862094       10.000008917160937       -0.065213489707214        0.104985902271513        0.000000000000000
Se         14.865662511867789        2.941899528111303        8.330515702733337        0.128151809210914       -0.225742701267323        0.001312805860452
Se         14.865662511867789        2.941899528111303       11.669499476039515        0.128151809210914       -0.225742701267323       -0.001312805860452
Mo         13.215172406238523        3.883913054727759       10.000008917160937       -0.065415064285082        0.105019583737968        0.000000000000000
Se         13.205952340035640        5.816616321525989        8.330515702733337        0.128085217609297       -0.225715447561642        0.001347515768631
Se         13.205952340035640        5.816616321525989       11.669499476039515        0.128085217609297       -0.225715447561642       -0.001347515768631
Mo         18.233395258881448        0.941522250047466       10.000008917160937       -0.077929657401344        0.120512544086404        0.000000000000000
Se         18.239965087160805        2.846873361923559        8.330515702733337        0.013192593322689       -0.010496533343704        0.003983154796342
Se         18.239965087160805        2.846873361923559       11.669499476039515        0.013192593322689       -0.010496533343704       -0.003983154796342
Mo         16.573674464853212        3.816236387913130       10.000008917160937       -0.077946112468926        0.120510744313387        0.000000000000000
Se         16.580254915328656        5.721587499789223        8.330515702733337        0.013147856107703       -0.010482392270001        0.003986497231944
Se         16.580254915328656        5.721587499789223       11.669499476039515        0.013147856107703       -0.010482392270001       -0.003986497231944
Mo         21.589698522906286        0.877669573823894       10.000008917160937        0.034205457513280       -0.067460377763322        0.000000000000000
Se         21.601558204836600        2.773856386026559        8.330515702733337       -0.124066067352621        0.220900797631594       -0.002016517109973
Se         21.601558204836600        2.773856386026559       11.669499476039515       -0.124066067352621        0.220900797631594        0.002016517109973
Mo         19.929977728878050        3.752386367238580       10.000008917160937        0.034235025212839       -0.067459092211167        0.000000000000000
Se         19.941837410808368        5.648573179441245        8.330515702733337       -0.124049098064178        0.220889998993494       -0.002034771950571
Se         19.941837410808368        5.648573179441245       11.669499476039515       -0.124049098064178        0.220889998993494        0.002034771950571
Mo         24.883872562022546        0.921417088405184       10.000008917160937        0.085247534487162       -0.149635956821443        0.000000000000000
Se         24.881931355687779        2.841522430645102        8.330515702733337       -0.033842417584772        0.063888856766938        0.001440075523774
Se         24.881931355687779        2.841522430645102       11.669499476039515       -0.033842417584772        0.063888856766938       -0.001440075523774
Mo         23.224159734641376        3.796133881819870       10.000008917160937        0.085151632296416       -0.149609217336624        0.000000000000000
Se         23.222210561659548        5.716239224059787        8.330515702733337       -0.033829304952794        0.063905311834519        0.001466557898163
Se         23.222210561659548        5.716239224059787       11.669499476039515       -0.033829304952794        0.063905311834519       -0.001466557898163
