# total energy = -38122.681136294996 eV 

 CRYSTAL
 PRIMVEC
       26.555490215667398        0.000000000000000        0.000000000000000
       -3.319436276958425        5.749422964633285        0.000000000000000
        0.000000000000000        0.000000000000000       20.000028456517960
 PRIMCOORD
48 1
Mo          1.634851577441262        0.943875066480574       10.023478659413543        0.075597922903021        0.092016223692461       -0.290742017985552
Se          1.649935095883761        2.890671331936259        8.383913482459002       -0.059418220593507       -0.127976717007434       -0.025895905495272
Se          1.619993780665596        2.830164647479861       11.722899911314199        0.063005682436610        0.124682618166049       -0.020571919801504
Mo         -0.024866561037951        3.818589204346238       10.055478025123424        0.117390195012896        0.064174763566159       -0.738810937113679
Se         -0.016286482149269        5.756006070657749        8.407218580672271        0.042890904981342       -0.227336785939239       -0.391583300110083
Se         -0.033220918259800        5.714258184489699       11.746210320625513       -0.023019353993757        0.202037376643780       -0.342255635489804
Mo          4.954290509948708        0.943875066480574       10.055478025123424        0.003220308147701        0.019219261824255        0.588057578359308
Se          4.962867933288368        2.881289277243064        8.407218580672271       -0.017209172475055       -0.085976442558917       -0.009595104172778
Se          4.945933497177837        2.839544046624034       11.746210320625513        0.013477471680186        0.083007588412689       -0.008107977440139
Mo          3.294569715920474        3.818589204346238       10.079688665553046        0.001974350999297       -0.001883333906739        0.016142678407457
Se          3.295456669293677        5.743694945393766        8.419750116505044        0.084470289654387       -0.070665516395597       -0.201809319691524
Se          3.293908484214104        5.726569309753682       11.758739200909265       -0.076030896868748        0.061686448815384       -0.183217921539659
Mo          8.273726786907133        0.943875066480574       10.079688665553046        0.003269416240013        0.004472178836017        0.230045958550203
Se          8.274611084731314        2.868980807528102        8.419750116505044       -0.007303993122546       -0.052254866876693        0.004614360904334
Se          8.273062899651741        2.851855171888018       11.758739200909265        0.003603145579392        0.049692761432235        0.007928514359333
Mo          6.614008648427920        3.818589204346238       10.092708822405788        0.002691174880797        0.000523476837423        0.008814002683540
Se          6.607090943226739        5.730180856423013        8.419750116505044        0.094105760164826        0.045604191359202       -0.001733695635924
Se          6.621146764197892        5.740083398724435       11.758739200909265       -0.095294638797558       -0.047411677688809        0.005834864120074
Mo         11.593160408316535        0.943875066480574       10.092708822405788        0.003181741583058        0.002881950820565       -0.183550622437314
Se         11.586250669762419        2.855466718557349        8.419750116505044        0.005871373801269       -0.009843215738649        0.021810934968272
Se         11.600301179635530        2.865369260858771       11.758739200909265       -0.008988580666157        0.008430908141418        0.025006817625033
Mo          9.933444925386345        3.818589204346238       10.092708822405788        0.003111036214545        0.002397297658217       -0.025480415038850
Se          9.919713081395823        5.717362521295911        8.407218580672271        0.092688824579837        0.148963613044498        0.190030576628652
Se          9.947399835494679        5.752901733851538       11.746210320625513       -0.106180437333726       -0.157487080941060        0.211096148457588
Mo         14.912601996373002        0.943875066480574       10.092708822405788        0.004648042370789        0.015923620320284       -0.572323448426638
Se         14.898862185735416        2.842648383430246        8.407218580672271        0.017644203324229        0.033041518592350        0.036868093136241
Se         14.926554250932314        2.878187595985874       11.746210320625513       -0.019586415519657       -0.033840617811756        0.037935872755994
Mo         13.252881202344769        3.818589204346238       10.079688665553046        0.002678576469680        0.002556191904546       -0.057697637589561
Se         13.234281736997715        5.707040402249080        8.383913482459002        0.079069942162626        0.225045931999437        0.345551791214636
Se         13.271711700456700        5.763223852898368       11.722899911314199       -0.100733038633100       -0.250510149081137        0.396925797754880
Mo         18.232035617782408        0.943875066480574       10.079688665553046        0.007109617636744        0.036322247691325       -0.880549232827503
Se         18.213436152435353        2.832326264383416        8.383913482459002        0.026975512194849        0.071127286729590        0.047211902883958
Se         18.250866115894336        2.888509715032704       11.722899911314199       -0.027944818519546       -0.071808629371619        0.045006666717664
Mo         16.572314823754173        3.818589204346238       10.055478025123424        0.001636507893023        0.001294036798992       -0.082323417555920
Se         16.551474075032917        5.700664429048299        8.353109113808827        0.057269548722023        0.267545257794436        0.448913784004242
Se         16.593383949691283        5.769599826099149       11.692090231565983       -0.078369059127845       -0.311124704509874        0.530486953322638
Mo         21.551469239191810        0.943875066480574       10.055478025123424        0.009400471576546        0.053679258664179       -1.066927812894882
Se         21.530628490470555        2.825947635633613        8.353109113808827        0.035609537576720        0.099493766355901        0.052278263925910
Se         21.572538365128921        2.894885688233485       11.692090231565983       -0.035793114424422       -0.101246231053285        0.046278334909163
Mo         19.891756411810640        3.818589204346238       10.023478659413543        0.001372712590864       -0.000877003679985       -0.090433708989938
Se         19.871606105834992        5.699126866164812        8.319131364077879        0.031851354407463        0.277752541903316        0.490732795598937
Se         19.912116506158991        5.771137388982637       11.658120448482101       -0.043831157827342       -0.329433795408551        0.587365437079180
Mo         24.870910827248277        0.943875066480574       10.023478659413543        0.015710732883454        0.056305641716376       -1.114114776067037
Se         24.850760521272630        2.824412728299147        8.319131364077879        0.344093203739833        0.299469117343429        0.336306100117524
Se         24.891281543792715        2.896423251116973       11.658120448482101       -0.474070754120952       -0.372773615202339        0.439015032412507
Mo         23.211190033220042        3.818589204346238        9.988181101818878        0.001163681810499       -0.002244059841368       -0.087092301829258
Se         23.194590196286228        5.702648124167410        8.286749599308896        0.165254901281047        0.360189088048856        0.544876652811850
Se         23.228010280722646        5.767616130980040       11.625741339262138       -0.238264236365222       -0.454842750542045        0.679680680202841
