# total energy = -38122.7497528236 eV 

 CRYSTAL
 PRIMVEC
       26.555490215667398        0.000000000000000        0.000000000000000
       -3.319436276958425        5.749422964633285        0.000000000000000
        0.000000000000000        0.000000000000000       20.000028456517960
 PRIMCOORD
48 1
Mo          1.634851577441262        0.943875066480574        9.922615596476396        0.001612082402083        0.000930739760054        0.577525049555271
Se          1.685020209556700        2.889317001935260        8.285366058268659       -0.178482204511915       -0.103050889168152       -0.049750354168768
Se          1.584908666992656        2.831516321931838       11.624349831574838        0.220028679049798        0.127029522179799       -0.093683841947630
Mo         -0.024866561037951        3.818589204346238        9.922615596476396        0.001648592083278        0.000951822815392        0.577526849328288
Se          0.025302071077488        5.764033795349946        8.285366058268659       -0.178485804057948       -0.103044718517809       -0.049750354168768
Se         -0.074812127035578        5.706233115346524       11.624349831574838        0.220025079503764        0.127035692830142       -0.093683841947630
Mo          4.954290509948708        0.943875066480574       10.025828820297630        0.001246985590128        0.000709881899864        0.037884964890665
Se          4.987219317816135        2.879366659751450        8.383095573360359       -0.085239049842940       -0.049212736257643       -0.018215759812240
Se          4.921582112650070        2.841469319664670       11.722079346666536        0.063391348083041        0.036599155625463       -0.032368660594543
Mo          3.294569715920474        3.818589204346238       10.025828820297630        0.001238243835475        0.000725051415291        0.037884964890665
Se          3.327501179336922        5.754080797617114        8.383095573360359       -0.085231593640443       -0.049208365380317       -0.018207018057588
Se          3.261863974170858        5.716186113079357       11.722079346666536        0.063398547175108        0.036603269392358       -0.032376631017903
Mo          8.273726786907133        0.943875066480574       10.087079058480066        0.005110584036076        0.002950599305630       -0.113811217814014
Se          8.236079068428380        2.838617260015508        8.395369520938040        0.091757056378059        0.052970405206038        0.032146774292630
Se          8.311594915954673        2.882216063851590       11.734361260891284       -0.073028361256065       -0.042165082234759        0.008469731816492
Mo          6.614008648427920        3.818589204346238       10.087079058480066        0.005132695533138        0.002963454827178       -0.113809932261860
Se          6.576360929949169        5.713334053430193        8.395369520938040        0.091752171279871        0.052978889850260        0.032146774292630
Se          6.651876777475461        5.756932857266277       11.734361260891284       -0.073030418139513       -0.042161996909587        0.008469731816492
Mo         11.593160408316535        0.943875066480574       10.006817744852235        0.003347063590161        0.001906730955956       -0.057652129043283
Se         11.546311212478056        2.833298195325309        8.302239416751695        0.096476061227792        0.055700403761910        0.038828045951405
Se         11.640240636919893        2.887535128541789       11.641231156704936       -0.113595245052013       -0.065584242948649        0.012534647729877
Mo          9.933444925386345        3.818589204346238       10.006817744852235        0.003324694982668        0.001945297520599       -0.057652129043283
Se          9.886587762900799        5.708014988739995        8.302239416751695        0.096529025976569        0.055730999903193        0.038852728552776
Se          9.980525153989701        5.762249266407452       11.641231156704936       -0.113607843463130       -0.065591442040716        0.012506879803334
Mo         14.912601996373002        0.943875066480574        9.915493414000553       -0.006493838154609       -0.003749184304174        0.093353455043854
Se         14.932863835407558        2.872053277746054        8.255066243932584       -0.037584917017741       -0.021729945182522       -0.004249521202810
Se         14.892552601260174        2.848780046121044       11.594050017238761        0.047068178153055        0.027150604398329       -0.017096558106297
Mo         13.252881202344769        3.818589204346238        9.915493414000553       -0.006448329608330       -0.003722959040216        0.093377109203501
Se         13.273151008026389        5.746770071160740        8.255066243932584       -0.037611142281699       -0.021684436636243       -0.004249521202810
Se         13.232842429428027        5.723496839535729       11.594050017238761        0.047047095097716        0.027187114079524       -0.017096558106297
Mo         18.232035617782408        0.943875066480574        9.961522045191369        0.012671944700007        0.007317105754524        0.095853082653590
Se         18.286676194450163        2.891895540035201        8.330515702733337       -0.121988357960081       -0.070430003240843       -0.012040224371152
Se         18.177626073879527        2.828937783831897       11.669499476039515        0.118180809588080        0.068231709056184       -0.047645391070547
Mo         16.572314823754173        3.818589204346238        9.961522045191369        0.012672716031300        0.007315820202370        0.095853082653590
Se         16.626955400421931        5.766612333449887        8.330515702733337       -0.121975759548964       -0.070422804148776       -0.012058222101319
Se         16.517905279851291        5.703654577246582       11.669499476039515        0.118190065563595        0.068237108375234       -0.047630478665551
Mo         21.551469239191810        0.943875066480574       10.070099478036168       -0.014118190874124       -0.008151171992540       -0.067862498477334
Se         21.551859604897981        2.860578650423865        8.405965161534091       -0.010154833580966       -0.005900170169536       -0.000823524710346
Se         21.551309906250516        2.860257328992255       11.744948934840268        0.005799639991033        0.003338578945940       -0.007677317468291
Mo         19.891756411810640        3.818589204346238       10.070099478036168       -0.014193524230394       -0.008194623655371       -0.067839615648979
Se         19.892146777516810        5.735292788289529        8.405965161534091       -0.010187229495266       -0.005844120095588       -0.000823524710346
Se         19.891586456673259        5.734971466857919       11.744948934840268        0.005791155346812        0.003353491350935       -0.007677317468291
Mo         24.870910827248277        0.943875066480574       10.064769791149883        0.001700528390331        0.001003502012014       -0.100771090976881
Se         24.816602194208215        2.828998861459393        8.358791988714980        0.100464101122322        0.058003084781535       -0.116952078838550
Se         24.925442526406151        2.891834462407705       11.697781073119200       -0.128199117530209       -0.074015922421360       -0.156018980380311
Mo         23.211190033220042        3.818589204346238       10.064769791149883        0.001719297451790        0.000971106097714       -0.100771090976881
Se         23.156881400179980        5.703712999325057        8.358791988714980        0.100499068140932        0.058023139395149       -0.116951821728119
Se         23.265719076828894        5.766551255822391       11.697781073119200       -0.128169292720219       -0.073998438912055       -0.156017180607295
