# total energy = -38122.745773156916 eV 

 CRYSTAL
 PRIMVEC
       26.555490215667398        0.000000000000000        0.000000000000000
       -3.319436276958425        5.749422964633285        0.000000000000000
        0.000000000000000        0.000000000000000       20.000028456517960
 PRIMCOORD
48 1
Mo          1.634851577441262        0.943875066480574        9.904860595718201        0.171736141024539        0.099151809482732        1.198115067853641
Se          1.645962394547497        2.866768735193137        8.241201622490982       -0.113033458760378       -0.065259255363923       -0.081333028175885
Se          1.623966482001859        2.854067244222983       11.580190706895204        0.116942565752605        0.067515913616408       -0.072314108478875
Mo         -0.024866561037951        3.818589204346238        9.904860595718201        0.171720971509113        0.099143067728079        1.198087042816666
Se         -0.013755743931716        5.741482873058802        8.241201622490982       -0.113032944539516       -0.065260026695216       -0.081333028175885
Se         -0.035754312026375        5.728781382088648       11.580190706895204        0.116941794421312        0.067517199168563       -0.072314108478875
Mo          4.954290509948708        0.943875066480574        9.923348528006349        0.016661270146692        0.009609759467343        0.061330350868513
Se          4.977359264299058        2.873673162649210        8.266230172019249       -0.044316582320983       -0.025586344536403       -0.025692531144387
Se          4.931442166167147        2.847160161217888       11.605219256423471        0.041360840806734        0.023879645495730       -0.026778565604738
Mo          3.294569715920474        3.818589204346238        9.923348528006349        0.016652785502470        0.009624157651476        0.061330350868513
Se          3.317643781368867        5.748387300514874        8.266230172019249       -0.044313239885381       -0.025584287652956       -0.025685074941890
Se          3.271724027687935        5.721876954632574       11.605219256423471        0.041367525677939        0.023883502152194       -0.026786021807236
Mo          8.273726786907133        0.943875066480574        9.960802391406524        0.003933275372737        0.002271056436618        0.012689685319743
Se          8.303078570242509        2.877300642612671        8.307160149088658       -0.053322646496445       -0.030787688554606       -0.004753457647481
Se          8.244598069689566        2.843535336803449       11.646149233492878        0.050681865260115        0.029257367269567       -0.011490522269772
Mo          6.614008648427920        3.818589204346238        9.960802391406524        0.003953072875920        0.002282369295580        0.012688913988450
Se          6.643360431763297        5.752014780478335        8.307160149088658       -0.053324189159031       -0.030785117450297       -0.004753457647481
Se          6.584879931210354        5.718252130218135       11.646149233492878        0.050678779934944        0.029263023699048       -0.011490522269772
Mo         11.593160408316535        0.943875066480574       10.007959630931508        0.003782608660198        0.002162298724324        0.005636631977808
Se         11.621558849553169        2.876748288416184        8.353871256378017       -0.052685783958972       -0.030418220865325        0.003915534753001
Se         11.564990344295756        2.844085035450914       11.692860340782238        0.048576130830601        0.028045605808480       -0.002175668466734
Mo          9.933444925386345        3.818589204346238       10.007959630931508        0.003763839598738        0.002194694638625        0.005636631977808
Se          9.961843366622979        5.751465081830871        8.353871256378017       -0.052685012627679       -0.030417706644463        0.003938931802218
Se          9.905269550267523        5.718801828865600       11.692860340782238        0.048609040965763        0.028064374869940       -0.002198037074227
Mo         14.912601996373002        0.943875066480574       10.053138486435422        0.001286323486064        0.000742792035027        0.002211406816637
Se         14.933052379388091        2.872159499706917        8.394801233447424       -0.037693160509173       -0.021751285348291        0.009079854869146
Se         14.892372023926708        2.848676479709202       11.733790317851646        0.033002180696414        0.019064224234389        0.008263529250867
Mo         13.252881202344769        3.818589204346238       10.053138486435422        0.001358314406731        0.000784186814410        0.002201122399399
Se         13.273331585359855        5.746873637572581        8.394801233447424       -0.037683647423228       -0.021767483305441        0.009079854869146
Se         13.232651229898474        5.723390617574866       11.733790317851646        0.033011179561498        0.019048797608532        0.008263529250867
Mo         18.232035617782408        0.943875066480574       10.085188307576711        0.001938098428532        0.001128714791889        0.000874946796537
Se         18.239505677180073        2.864662884819034        8.419829782975691       -0.012984076763185       -0.007496311724900        0.012960679713968
Se         18.224796591149616        2.856170439048064       11.758821522928933        0.009228721808669        0.005328099460663        0.015657253913816
Mo         16.572314823754173        3.818589204346238       10.085188307576711        0.001946325962323        0.001114059497324        0.000874946796537
Se         16.579784883151838        5.739379678233720        8.419829782975691       -0.012978163223273       -0.007492969289297        0.012943453315094
Se         16.565073141572363        5.730887232462750       11.758821522928933        0.009238749115476        0.005334013000575        0.015676794306568
Mo         21.551469239191810        0.943875066480574       10.096158380584804        0.003694676892811        0.002132988135196       -0.019863580564226
Se         21.544139923892285        2.856117328067632        8.422764164644523        0.003794435740022        0.002190323761299        0.007393981773380
Se         21.559029587256209        2.864715995799465       11.761750593499722       -0.003838144513284       -0.002251258933435        0.010162032673032
Mo         19.891756411810640        3.818589204346238       10.096158380584804        0.003626285518177        0.002093650239260       -0.019892119822062
Se         19.884416474315028        5.730834121482318        8.422764164644523        0.003794178629591        0.002190837982160        0.007393981773380
Se         19.899316759875042        5.739432789214152       11.761750593499722       -0.003868740654567       -0.002198294184658        0.010162032673032
Mo         24.870910827248277        0.943875066480574       10.083340045457701        0.000468712315629        0.000279221928016        0.023426102695527
Se         24.850611810527418        2.848636646473879        8.402874102472987       -0.495530476240541       -0.286094746946055       -0.628072446059997
Se         24.891432910086944        2.872199332942241       11.741860531328186        0.306308769027671        0.176847496391908       -0.499208440955341
Mo         23.211190033220042        3.818589204346238       10.083340045457701        0.000476168518127        0.000266366406469        0.023426102695527
Se         23.190898983146251        5.723350784339543        8.402874102472987       -0.495583440989318       -0.286125085976908       -0.628084273139821
Se         23.231709460509688        5.746913470807905       11.741860531328186        0.306337308285507        0.176863951459489       -0.499200727642412
