# total energy = -38122.81886759287 eV 

 CRYSTAL
 PRIMVEC
       26.555490215667398        0.000000000000000        0.000000000000000
       -3.319436276958425        5.749422964633285        0.000000000000000
        0.000000000000000        0.000000000000000       20.000028456517960
 PRIMCOORD
48 1
Mo          1.675364633314284        0.873710150232738       10.000008917160937        0.070273165877960       -0.126632543674406        0.000000000000000
Se          1.684688265929005        2.774289240517075        8.330515702733337       -0.091614874309742        0.160467247946249       -0.003423168277724
Se          1.684688265929005        2.774289240517075       11.669499476039515       -0.091614874309742        0.160467247946249        0.003423168277724
Mo          0.015643839286050        3.748424288098402       10.000008917160937        0.070226628889958       -0.126624830361477        0.000000000000000
Se          0.024970127449792        5.649006033931761        8.330515702733337       -0.091606646775951        0.160470590381852       -0.003416997627381
Se          0.024970127449792        5.649006033931761       11.669499476039515       -0.091606646775951        0.160470590381852        0.003416997627381
Mo          4.982641151302954        0.894768653973762       10.000008917160937        0.052026809924437       -0.104346982850592        0.000000000000000
Se          4.982943883891413        2.810980961348063        8.330515702733337       -0.066967754177614        0.111418291033124        0.004675038966040
Se          4.982943883891413        2.810980961348063       11.669499476039515       -0.066967754177614        0.111418291033124       -0.004675038966040
Mo          3.322923012823742        3.769482791839426       10.000008917160937        0.052034523237365       -0.104337469764646        0.000000000000000
Se          3.323225745412200        5.685695099213727        8.330515702733337       -0.066961840637702        0.111428061229500        0.004680181174659
Se          3.323225745412200        5.685695099213727       11.669499476039515       -0.066961840637702        0.111428061229500       -0.004680181174659
Mo          8.260534019367988        0.966726065811156       10.000008917160937        0.020332035769424       -0.045479235689758        0.000000000000000
Se          8.251614030204546        2.898911500550180        8.330515702733337        0.031244830900843       -0.040870531214904        0.000445315266413
Se          8.251614030204546        2.898911500550180       11.669499476039515        0.031244830900843       -0.040870531214904       -0.000445315266413
Mo          6.600815880888777        3.841440203676821       10.000008917160937        0.020338720640629       -0.045465865947348        0.000000000000000
Se          6.591895891725334        5.773625638415846        8.330515702733337        0.031249715999031       -0.040847905496981        0.000454314131496
Se          6.591895891725334        5.773625638415846       11.669499476039515        0.031249715999031       -0.040847905496981       -0.000454314131496
Mo         11.552100309345070        1.014998635925196       10.000008917160937       -0.034345068477288        0.061071954885404        0.000000000000000
Se         11.543321064279770        2.946942415703258        8.330515702733337        0.091032519183630       -0.155653112237064       -0.002671120267183
Se         11.543321064279770        2.946942415703258       11.669499476039515        0.091032519183630       -0.155653112237064        0.002671120267183
Mo          9.892379515316836        3.889715429339882       10.000008917160937       -0.034303159477042        0.061099465701516        0.000000000000000
Se          9.883600270251536        5.821659209117945        8.330515702733337        0.091020177882945       -0.155654912010080       -0.002688603776488
Se          9.883600270251536        5.821659209117945       11.669499476039515        0.091020177882945       -0.155654912010080        0.002688603776488
Mo         14.886221772392760        0.989553165200544       10.000008917160937       -0.063540986353857        0.095762065561032        0.000000000000000
Se         14.886803337628484        2.905292784849006        8.330515702733337        0.059691528981611       -0.106904460307293        0.004898467930539
Se         14.886803337628484        2.905292784849006       11.669499476039515        0.059691528981611       -0.106904460307293       -0.004898467930539
Mo         13.226511600560611        3.864269958615230       10.000008917160937       -0.063647687182703        0.095779806180768        0.000000000000000
Se         13.227082543600249        5.780006922714670        8.330515702733337        0.059680216122649       -0.106898032546519        0.004903353028727
Se         13.227082543600249        5.780006922714670       11.669499476039515        0.059680216122649       -0.106898032546519       -0.004903353028727
Mo         18.247684768166501        0.916761910970378       10.000008917160937       -0.026016233176959        0.035552201950618        0.000000000000000
Se         18.257146489330342        2.817128557332990        8.330515702733337       -0.025872508446055        0.057969660425511       -0.000211601884675
Se         18.257146489330342        2.817128557332990       11.669499476039515       -0.025872508446055        0.057969660425511        0.000211601884675
Mo         16.587974596334352        3.791476048836042       10.000008917160937       -0.026107507379947        0.035551430619325        0.000000000000000
Se         16.597425695302110        5.691842695198654        8.330515702733337       -0.025846540292529        0.057993571695590       -0.000178948859944
Se         16.597425695302110        5.691842695198654       11.669499476039515       -0.025846540292529        0.057993571695590        0.000178948859944
Mo         21.592927670516509        0.872074332035453       10.000008917160937        0.052612764596581       -0.084693204398025        0.000000000000000
Se         21.601579449228776        2.773832486085365        8.330515702733337       -0.087221114155166        0.153349916996576       -0.002729227224578
Se         21.601579449228776        2.773832486085365       11.669499476039515       -0.087221114155166        0.153349916996576        0.002729227224578
Mo         19.933206876488278        3.746788469901117       10.000008917160937        0.052719979646289       -0.084684976864234        0.000000000000000
Se         19.941858655200541        5.648549279500052        8.330515702733337       -0.087164806970787        0.153357887419936       -0.002719971249064
Se         19.941858655200541        5.648549279500052       11.669499476039515       -0.087164806970787        0.153357887419936        0.002719971249064
Mo         24.895201134148547        0.901805858880914       10.000008917160937        0.055607586896335       -0.097891197039764        0.000000000000000
Se         24.894192025520354        2.820283349570611        8.330515702733337        0.026231177497236       -0.046529017579344       -0.000062220724291
Se         24.894192025520354        2.820283349570611       11.669499476039515        0.026231177497236       -0.046529017579344        0.000062220724291
Mo         23.235480340120315        3.776522652295600       10.000008917160937        0.055663636970283       -0.097842860278744        0.000000000000000
Se         23.234479198139184        5.694997487436275        8.330515702733337        0.026168185441653       -0.046505877640558       -0.000068134264203
Se         23.234479198139184        5.694997487436275       11.669499476039515        0.026168185441653       -0.046505877640558        0.000068134264203
