# total energy = -38121.95390778773 eV 

 CRYSTAL
 PRIMVEC
       26.555490215667398        0.000000000000000        0.000000000000000
       -3.319436276958425        5.749422964633285        0.000000000000000
        0.000000000000000        0.000000000000000       20.000028456517960
 PRIMCOORD
48 1
Mo          1.564638861311037        0.924019526446320       10.000008917160937        1.382802118395772       -0.178367533259709        0.000000000000000
Se          1.608309364970702        2.841302020076312        8.325916291827983        0.129344030279248        0.013235273654227        0.026539710014381
Se          1.608309364970702        2.841302020076312       11.674098886944869        0.129344030279248        0.013235273654227       -0.026539710014381
Mo         -0.013052023441001        3.823945446722739       10.000008917160937        0.316791418408103        0.519052224016383        0.000000000000000
Se          0.053379190882513        5.753536410067692        8.330515702733337       -1.381005687814695       -0.381222778184354       -0.354977716723846
Se          0.053379190882513        5.753536410067692       11.669499476039515       -1.381005687814695       -0.381222778184354        0.354977716723846
Mo          4.875784514224130        0.920654945835995       10.000008917160937        2.390625642533342        0.600439245382768        0.000000000000000
Se          4.887291008134579        2.831351677892501        8.325764925533754        0.168555170772774        0.155839517299505        0.021727631188643
Se          4.887291008134579        2.831351677892501       11.674250253239098        0.168555170772774        0.155839517299505       -0.021727631188643
Mo          3.267507015841687        3.812388497380880       10.000008917160937       -0.193500539004809       -0.063967532558810        0.000000000000000
Se          3.337419654932474        5.738697202135177        8.328184130692401       -0.945436449397836       -0.262852992429523       -0.132537856052561
Se          3.337419654932474        5.738697202135177       11.671831048080449       -0.945436449397836       -0.262852992429523        0.132537856052561
Mo          8.206352852680963        0.923036973308340       10.000008917160937        1.396681453679540        0.341020991200362        0.000000000000000
Se          8.182877799330312        2.828592562459093        8.326789967456079        0.194424079672796        0.133865574318008        0.014795933970119
Se          8.182877799330312        2.828592562459093       11.673230522414816        0.194424079672796        0.133865574318008       -0.014795933970119
Mo          6.554760694207745        3.802363799824465       10.000008917160937       -0.158359199522856       -0.124497755766193        0.000000000000000
Se          6.610885722778558        5.722973696378481        8.326431468338168       -0.401940222489779       -0.047408335253207        0.095083294023313
Se          6.610885722778558        5.722973696378481       11.673589021532727       -0.401940222489779       -0.047408335253207       -0.095083294023313
Mo         11.553590072346170        0.930570765882525       10.000008917160937        0.096323337631805        0.035206131310553        0.000000000000000
Se         11.500970368483824        2.833707149874630        8.328736484888887        0.175618765642378        0.088959951999709        0.000986018502709
Se         11.500970368483824        2.833707149874630       11.671281349432986        0.175618765642378        0.088959951999709       -0.000986018502709
Mo          9.856673003172851        3.796354292388660       10.000008917160937       -0.113639982266999       -0.150386719279830        0.000000000000000
Se          9.885153766429154        5.710261583212241        8.325687914612129        0.192590368079231        0.125582247563958        0.190863871535374
Se          9.885153766429154        5.710261583212241       11.674329919709745        0.192590368079231        0.125582247563958       -0.190863871535374
Mo         14.910612990155849        0.941397439243452       10.000008917160937       -1.143709215111585       -0.197113969001439        0.000000000000000
Se         14.841892692575748        2.845428743255826        8.331121167910254        0.116211600797402        0.041720281189208       -0.016110796714019
Se         14.841892692575748        2.845428743255826       11.668899321960641        0.116211600797402        0.041720281189208        0.016110796714019
Mo         13.177572487642157        3.795847082525541       10.000008917160937       -0.041246426664959       -0.138975644133222        0.000000000000000
Se         13.171390369519951        5.703699721579950        8.326139357945795        0.707004319921201        0.212920604075639        0.142200066047818
Se         13.171390369519951        5.703699721579950       11.673881131925098        0.707004319921201        0.212920604075639       -0.142200066047818
Mo         18.268127184534517        0.952837544428362       10.000008917160937       -2.018956830852813       -0.311026231214818        0.000000000000000
Se         18.200336329111966        2.860857483071129        8.333357140186413        0.028970946249484       -0.004006808955990       -0.031082337108480
Se         18.200336329111966        2.860857483071129       11.666660694135459        0.028970946249484       -0.004006808955990        0.031082337108480
Mo         16.517113926242864        3.800964325490100       10.000008917160937        0.047599882524268       -0.089080793902257        0.000000000000000
Se         16.477825078468783        5.704915963031826        8.327671609731240        1.046195456184462        0.223814373035167        0.023520462223687
Se         16.477825078468783        5.704915963031826       11.672348880139655        1.046195456184462        0.223814373035167       -0.023520462223687
Mo         21.616718734200727        0.962060266180263       10.000008917160937       -2.382796372800357       -0.345208034568450        0.000000000000000
Se         21.566648357399085        2.876177345376548        8.334892047520880       -0.069324171277309       -0.062848073742435       -0.033360849747595
Se         21.566648357399085        2.876177345376548       11.665131097899037       -0.069324171277309       -0.062848073742435        0.033360849747595
Mo         19.870296920167359        3.810444635497094       10.000008917160937        0.134350998811649        0.000241940915528        0.000000000000000
Se         19.807657829846644        5.713604919430393        8.329910237556419        1.145745529724742        0.201372489069333       -0.070973277581449
Se         19.807657829846644        5.713604919430393       11.670110252314474        1.145745529724742        0.201372489069333        0.070973277581449
Mo         24.949161890266787        0.966784487889630       10.000008917160937       -2.300031239524058       -0.427458175651548        0.000000000000000
Se         24.929242617056012        2.887598861718306        8.335343490854545       -0.372842263687404       -0.100528121619630       -0.180110484871147
Se         24.929242617056012        2.887598861718306       11.664679654565370       -0.372842263687404       -0.100528121619630        0.180110484871147
Mo         23.228798978782052        3.821937851662434       10.000008917160937        0.065052281467005        0.154189639664073        0.000000000000000
Se         23.158320707749670        5.727620907166222        8.332294920577787        0.526894863491778       -0.150477736372387       -0.473405352325643
Se         23.158320707749670        5.727620907166222       11.667720258195065        0.526894863491778       -0.150477736372387        0.473405352325643
