# total energy = -38122.773627422284 eV 

 CRYSTAL
 PRIMVEC
       53.110927513609894        0.000000000000000        0.000000000000000
       -1.659716484800309        2.874735173529163        0.000000000000000
        0.000000000000000        0.000000000000000       19.999981973800079
 PRIMCOORD
48 1
Mo          1.633176954321758        0.964483821461653        9.999996297992791       -1.095690242584862        0.201943274226051        0.000000000000000
Se          1.586094117080943        2.893185909747391        8.329976293254841        0.254979242591983       -0.149880725951712       -0.077051625279636
Se          1.586094117080943        2.893185909747391       11.670026924916241        0.254979242591983       -0.149880725951712        0.077051625279636
Mo          4.913477792530349        0.983455044769514        9.999996297992791       -0.475902923051932        0.127653014974863        0.000000000000000
Se          4.877171162482045        2.907398393950033        8.329684183153516        0.240405452034208       -0.058107471616502       -0.063202629026721
Se          4.877171162482045        2.907398393950033       11.670308412832064        0.240405452034208       -0.058107471616502        0.063202629026721
Mo          8.203869706966525        0.992632613043866        9.999996297992791       -0.201764582476538        0.017914169276731        0.000000000000000
Se          8.187352208509793        2.909990207212697        8.329599205669494        0.112723383580647       -0.012338986691921       -0.023511463358603
Se          8.187352208509793        2.909990207212697       11.670398701408837        0.112723383580647       -0.012338986691921        0.023511463358603
Mo         11.511549228308382        0.989748689679877        9.999996297992791        0.090452478051398       -0.078993066143771        0.000000000000000
Se         11.518926336140023        2.900313396219717        8.329742605173781       -0.037872366479548        0.036455945115422        0.013933585584699
Se         11.518926336140023        2.900313396219717       11.670260612997303       -0.037872366479548        0.036455945115422       -0.013933585584699
Mo         14.839405591012659        0.975514961106230        9.999996297992791        0.351053954437055       -0.153276383413323        0.000000000000000
Se         14.868887466875465        2.880768574894709        8.330071892924366       -0.173631302011102        0.074575394719116        0.041109129694830
Se         14.868887466875465        2.880768574894709       11.669926014153965       -0.173631302011102        0.074575394719116       -0.041109129694830
Mo         18.185378091091827        0.953452681817076        9.999996297992791        0.524303190347760       -0.189691962191085        0.000000000000000
Se         18.229688537916431        2.856188837641410        8.330507402529976       -0.263708398833307        0.093321059129553        0.054958897279038
Se         18.229688537916431        2.856188837641410       11.669490504548355       -0.263708398833307        0.093321059129553       -0.054958897279038
Mo         21.542875662441450        0.929026966253567        9.999996297992791        0.567038543518375       -0.178569879168870        0.000000000000000
Se         21.591095073531058        2.832655385660130        8.330942912135589       -0.290367922308513        0.089145328620427        0.056993155008747
Se         21.591095073531058        2.832655385660130       11.669060306035494       -0.290367922308513        0.089145328620427       -0.056993155008747
Mo         24.902508293077119        0.908271215781248        9.999996297992791        0.483565842336089       -0.122886701805834        0.000000000000000
Se         24.942718576297676        2.815983865513608        8.331272199886172       -0.248366362307842        0.063380806555372        0.047681643641311
Se         24.942718576297676        2.815983865513608       11.668731018284911       -0.248366362307842        0.063380806555372       -0.047681643641311
Mo         28.254307061904534        0.896321257090686        9.999996297992791        0.274141940121427       -0.038974341786618        0.000000000000000
Se         28.276608340367495        2.810311618455154        8.331410288297709       -0.146095546187205        0.021575936034380        0.026463348216388
Se         28.276608340367495        2.810311618455154       11.668587618780624       -0.146095546187205        0.021575936034380       -0.026463348216388
Mo         31.590284085425644        0.896135368844388        9.999996297992791       -0.010572895141697        0.061992924449082        0.000000000000000
Se         31.589163444855100        2.817030150785625        8.331330621906437       -0.004152333459910       -0.027015621422078       -0.006376081577232
Se         31.589163444855100        2.817030150785625       11.668667285171894       -0.004152333459910       -0.027015621422078        0.006376081577232
Mo         34.906333888943642        0.907761350877118        9.999996297992791       -0.308507320322760        0.147489856054269        0.000000000000000
Se         34.882115305997438        2.834477090473846        8.331038511805113        0.144472150926160       -0.070791500506764       -0.044830803182891
Se         34.882115305997438        2.834477090473846       11.668959395273218        0.144472150926160       -0.070791500506764        0.044830803182891
Mo         38.203306247298755        0.928320590917636        9.999996297992791       -0.529312987094901        0.198237798695140        0.000000000000000
Se         38.161996567878667        2.858345141298463        8.330618935477755        0.261255822432436       -0.098346282502553       -0.076843622940994
Se         38.161996567878667        2.858345141298463       11.669378971600576        0.261255822432436       -0.098346282502553        0.076843622940994
Mo         41.486745941323406        0.952730373202891        9.999996297992791       -0.614838972178787        0.200904290974565        0.000000000000000
Se         41.438595574439560        2.882728368119961        8.330172803686642        0.312595890395793       -0.101634467804025       -0.089170782553091
Se         41.438595574439560        2.882728368119961       11.669830414484442        0.312595890395793       -0.101634467804025        0.089170782553091
Mo         44.765554362468855        0.974946674181834        9.999996297992791       -0.541971047831637        0.154102222117548        0.000000000000000
Se         44.722502644626324        2.901588058480044        8.329806338286797        0.283803893006254       -0.078333063667512       -0.076228357679721
Se         44.722502644626324        2.901588058480044       11.670186257698782        0.283803893006254       -0.078333063667512        0.076228357679721
Mo         48.049796031498957        0.989472512856806        9.999996297992791       -0.327634279502302        0.064589225580857        0.000000000000000
Se         48.022523570220720        2.910261072943016        8.329615138947748        0.186988446009602       -0.039085156382359       -0.046370123333014
Se         48.022523570220720        2.910261072943016       11.670377457037834        0.186988446009602       -0.039085156382359        0.046370123333014
Mo         51.348175829433181        0.992722901620639        9.999996297992791        0.005666456787799       -0.022539328819166        0.000000000000000
Se         51.343454267977222        2.906601730037329        8.329641694411505        0.271955987237455        0.062131506971366        0.156704951010097
Se         51.343454267977222        2.906601730037329       11.670356212666826        0.271955987237455        0.062131506971366       -0.156704951010097
