# total energy = -9527.43944871801 eV 

 CRYSTAL
 PRIMVEC
        6.107710890233100        0.000000000000000        0.000000000000000
       -3.053855445116550        5.289430323714121        0.000000000000000
        0.000000000000000        0.000000000000000       20.000047449589029
 PRIMCOORD
12 1
Se          3.022780633649222        5.279767314314682        8.324071521141086        0.287630210439713       -0.092405231774495       -1.947822345031156
Se         -0.015415862286948        5.276163154118356        8.360696409494368       -0.401576668340410       -0.251287136803481       -2.692673063278379
Se          4.556781085418387        2.632962093790984        8.316025833585382        0.056927334738423        0.247323779510322       -1.773857056570244
Se          1.511076380484853        2.630277144083638        8.298990206370343       -0.211650735657156       -0.020447221242492       -1.268765671844242
Se          3.025932212468582        5.282192075538105       11.635231389099198       -0.205141727987121       -0.037397740624007        2.422370296111960
Se         -0.025977315958339        5.277676034105867       11.665598316874346        0.204151338607085        0.128265966242257        2.188651000834715
Se          4.567348646800668        2.635832717909394       11.694263025624389       -0.324312669844806       -0.214142907064395        1.495626803486215
Se          1.493131315118259        2.633626001964753       11.667960168675600        0.242387259236002       -0.032882367235590        2.100225067200097
Mo          1.508652230032519        0.862884568379263       10.011647309389716       -0.251008943317188        0.506358167819314       -0.728819368656369
Mo          4.546314912036883        0.868544584061242        9.966107606221049        0.378083459822404        0.514861323991830        1.228902242187385
Mo         -0.027230618233015        3.516087616060480       10.018686446190710        0.088196848240637       -0.443213645749989       -0.771161342867624
Mo          3.026500229581374        3.513483288136884       10.000464701520789        0.136314808283277       -0.305033244179708       -0.252676818682788
