# total energy = -9521.769595687749 eV 

 CRYSTAL
 PRIMVEC
        7.833781241021299        0.000000000000000        0.000000000000000
       -3.916890620510650        6.784250399255471        0.000000000000000
        0.000000000000000        0.000000000000000       19.999996028483224
 PRIMCOORD
12 1
Se          3.887115201391652        6.756701340765171        8.289491096886486        0.023024496202376        0.022191458406085        2.087024760564480
Se         -0.027311694918697        6.760784307547992        8.347740744060347        0.002716114592600       -0.001501524916772        1.747315546782846
Se          5.838622914979927        3.378855557583569        8.308682294170740        0.051398432031185       -0.021933833754269        1.852656004338645
Se          1.937417091270051        3.371274807476633        8.290403732401066       -0.020572176911935       -0.004610761358301        1.990604492300205
Se          3.871481324168946        6.780015457116574       11.725908495650955        0.062716176091356       -0.033062087426827       -2.029619971755775
Se         -0.049071589071882        6.776838075445216       11.717663440894782        0.050575935762562       -0.028871187402274       -1.946845839614393
Se          5.838277445227199        3.361799849065618       11.676210204079792        0.046060819484576        0.017842949687357       -1.813598872993260
Se          1.915829540304169        3.377182261910487       11.705246897627761        0.043452434162546       -0.021858243287568       -2.000183141405402
Mo          1.926130962636112        1.116311476711163       10.021799427435374       -0.019578187985867       -0.007915915948217        0.000601124187571
Mo          5.858508185282137        1.107362165021420       10.023996019695357       -0.092188487681200        0.024028255324821       -0.028379592258289
Mo         -0.026593337178895        4.494414991295594        9.974086999408808       -0.030482755583494        0.038066741965349        0.168485236735555
Mo          3.902360523064803        4.501627553684203        9.999517803451536       -0.117122800164704        0.017624405821046       -0.028059489771751
