# total energy = -9525.053517858245 eV 

 CRYSTAL
 PRIMVEC
        7.568240097473099        0.000000000000000        0.000000000000000
       -3.784120048736550        6.554285130414141        0.000000000000000
        0.000000000000000        0.000000000000000       20.000020487584848
 PRIMCOORD
12 1
Se          3.786228560427706        6.491139519160874        8.345963802249580       -0.146070092254540        0.191237967212413        0.943517634251625
Se         -0.100408598197185        6.582289889246820        8.448247810342920        0.186200145428297       -0.131472904647549        0.834277582789544
Se          5.748782957183894        3.204720562066331        8.470456054084945       -0.089711485789388        0.226936464998243        0.169855635332541
Se          1.876661683065956        3.230883968083295        8.440164173094809       -0.193260397862298        0.147349216648537        0.609373061527132
Se          3.809349533925486        6.498159818675290       11.664136824321092       -0.266691908274099        0.035976691272123       -1.737022387790027
Se         -0.034711733207060        6.485990845422563       11.703067851382492       -0.039448196310866        0.392031186480806       -1.347367673022531
Se          5.664634722836129        3.274410430531883       11.715026427560510       -0.115390390080935       -0.117330545392915       -1.693576638498686
Se          1.821939523041177        3.282799067855922       11.731762833712065        0.194497099035187       -0.093072947563683       -1.730693100311229
Mo          1.811048825540913        1.094703547954938       10.034461629540132        0.372942022534614       -0.262284521266683        0.666300396265555
Mo          5.633760844182497        1.088948658184820        9.982093192185667        0.243775912673586       -0.400708663525508        1.068197938423796
Mo         -0.027888207935179        4.370263594157627       10.108796126953504        0.048267084092594       -0.219320082702088        0.307935763834749
Mo          3.813141222214320        4.306557933137147        9.849798084809807       -0.195109278971289        0.230658138486305        1.909202301418394
