# total energy = -9529.242680727515 eV 

 CRYSTAL
 PRIMVEC
        7.037104892651799        0.000000000000000        0.000000000000000
       -3.518552446325899        6.094308764658774        0.000000000000000
        0.000000000000000        0.000000000000000       19.999937665154004
 PRIMCOORD
12 1
Se          3.498513586433584        6.072201699638509        8.291484321397746       -0.035687184926869        0.087946936901750        1.469928101691485
Se         -0.031175078384937        6.069019520806052        8.331517707421552        0.031450519245606        0.128089588486623        1.083868304969590
Se          5.255145969288364        3.023825675899757        8.331056777051083       -0.078212735985825       -0.015626657772532        1.021323107314819
Se          1.741473051495030        3.020766646402921        8.312762415461657       -0.114431882394338        0.003416226296088        1.178852868587416
Se          3.478789285129971        6.083745366504415       11.698414209916402        0.089677290102071       -0.111962336705023       -1.156769396562333
Se         -0.030533294418727        6.090538987567781       11.721217948321041        0.015535640679974       -0.106587957366788       -1.170218071874252
Se          5.259518826268658        3.025406913369136       11.721229911399359       -0.139763173383235        0.117196333747957       -1.340552446829229
Se          1.722233606718520        3.041405771342580       11.674937724284028        0.038054914885525        0.018114458302444       -1.006719749057484
Mo          1.749214570587436        0.994081141029692       10.034687796985880       -0.292815099390335        0.031356159717446       -0.389969417934984
Mo          5.241232205494613        1.002222367680002       10.029671748618396        0.122448585631489       -0.068129121994234       -0.233233613673172
Mo         -0.045476586658273        4.059336364563959        9.995792310823214        0.212023288671609       -0.153303122898143        0.269254270828989
Mo          3.484721564554476        4.043753399489670        9.986156403093705        0.151719579753896        0.069489493284412        0.274235785428725
