# total energy = -38122.15951927381 eV 

 CRYSTAL
 PRIMVEC
       13.277745107833699        0.000000000000000        0.000000000000000
       -6.638872553916849       11.498859207011680        0.000000000000000
        0.000000000000000        0.000000000000000       20.000015178772852
 PRIMCOORD
48 1
Mo          1.634851577441262        0.943875066480574       10.009486571618909        0.008316236889212        0.004801537298069        0.033403530079134
Se          1.682259766348781        2.887723672522320        8.360179513078748       -0.378203787504091       -0.218372630764022       -0.290811694912340
Se          1.587667782426064        2.833110979119289       11.699168597482970        0.299148243525598        0.172708275563977       -0.212540080637827
Mo         -0.024865233263440        3.818589204346238       10.009486571618909        0.008327035527312        0.004796137979019        0.033400444753962
Se          0.022541627869569        5.762437810387985        8.360179513078748       -0.378218699909086       -0.218365431671955       -0.290820950887855
Se         -0.072050356053149        5.707825116984954       11.699168597482970        0.299146957973443        0.172714189103889       -0.212532367324898
Mo         -1.684584699517163        6.693304669986414       10.009486571618909        0.008332691956793        0.004811050384014        0.033409957839908
Se         -1.637176510609643        8.637153276028158        8.360179513078748       -0.378219214129948       -0.218364146119800       -0.290820950887855
Se         -1.731768494532361        8.582540582625128       11.699168597482970        0.299148500636029        0.172711617999579       -0.212532367324898
Mo         -3.344301510221865        9.568020135626588       10.009486571618909        0.008317008220505        0.004813364377893        0.033400444753962
Se         -3.296894649088856       11.511868741668335        8.360179513078748       -0.378218185688224       -0.218347691052219       -0.290811694912340
Se         -3.391486633011573       11.457258703814325       11.699168597482970        0.299143872648272        0.172715731766475       -0.212540080637827
Mo          4.954287854399686        0.943875066480574       10.005507231410091        0.068802751323334        0.039685766349068        0.112665533733683
Se          5.031577608672386        2.904975446740928        8.344446712900476       -0.711558002763830       -0.410818245670626       -0.239575499563088
Se          4.877223821793820        2.815857877126170       11.683438452853718        0.589873292222707        0.340563591743694       -0.066573603886961
Mo          3.294569715920474        3.818589204346238       10.005507231410091        0.068770355409033        0.039742073533447        0.112665533733683
Se          3.371859470193174        5.779689584606593        8.344446712900476       -0.711533320162459       -0.410825701873124       -0.239561615599816
Se          3.217505683314607        5.690573342766346       11.683438452853718        0.589905688137007        0.340541994467494       -0.066582602752044
Mo          1.634851577441262        6.693304669986414       10.005507231410091        0.068783210930581        0.039725361355435        0.112661162856356
Se          1.712141331713962        8.654405050246767        8.344446712900476       -0.711557231432537       -0.410817731449764       -0.239574214010933
Se          1.557787544835395        8.565287480632010       11.683438452853718        0.589872778001845        0.340563334633263       -0.066575660770409
Mo         -0.024865233263440        9.568020135626588       10.005507231410091        0.068794780899974        0.039705306741820        0.112661162856356
Se          0.052423193234749       11.529117860337921        8.344446712900476       -0.711552089223918       -0.410793305958824       -0.239561615599816
Se         -0.101931921418329       11.439997635174141       11.683438452853718        0.589870721118397        0.340602158308337       -0.066582602752044
Mo          8.273725459132622        0.943875066480574        9.999432663023256        0.113875238311322        0.065703799299043        0.036631294429332
Se          8.351416201307577        2.905206479505804        8.323392192482984       -0.691310813436621       -0.399131033921174       -0.027550411118462
Se          8.196256455300965        2.815625516586783       11.662378621338183        0.607691559308692        0.350846466319275        0.147903289627243
Mo          6.614007320653410        3.818589204346238        9.999432663023256        0.113877809415632        0.065747250961874        0.036632579981487
Se          6.691698062828365        5.779921945145980        8.323392192482984       -0.691313127430500       -0.399127177264709       -0.027550411118462
Se          6.536538316821753        5.690340982226958       11.662378621338183        0.607687702652228        0.350853151190480        0.147903289627243
Mo          4.954287854399686        6.693304669986414        9.999432663023256        0.113838985740557        0.065767048465058        0.036631294429332
Se          5.031979924349153        8.654637410786155        8.323392192482984       -0.691284588172664       -0.399144917884445       -0.027543469136826
Se          4.876820178342541        8.565056447867134       11.662378621338183        0.607713413695323        0.350828982809970        0.147896347645608
Mo          3.294569715920474        9.568020135626588        9.999432663023256        0.113868553440117        0.065742108753255        0.036631037318901
Se          3.372261785869941       11.529347565328287        8.323392192482984       -0.691311841878345       -0.399097609565150       -0.027543469136826
Se          3.217102039863329       11.439767930183775       11.662378621338183        0.607683588885332        0.350880662006592        0.147896347645608
Mo         11.593157752767514        0.943875066480574        9.993574521881680        0.082305934046615        0.047464385327155       -0.074676439118481
Se         11.641618866862085        2.888330465473748        8.305058282038088       -0.274634049486273       -0.158572344070117        0.258295967151291
Se         11.544927671437819        2.832501530618839       11.644048694216819        0.285728364581946        0.164979021788633        0.322824000449581
Mo          9.933443597611834        3.818589204346238        9.993574521881680        0.082276880567917        0.047498323904041       -0.074664612038658
Se          9.981904711706404        5.763045931113923        8.305058282038088       -0.274654361210319       -0.158571829849255        0.258294681599136
Se          9.885205549635074        5.707216996259015       11.644048694216819        0.285750990299869        0.164978507567771        0.322826828664321
Mo          8.273725459132622        6.693304669986414        9.993574521881680        0.082273281021884        0.047504751664815       -0.074664612038658
Se          8.322185245452683        8.637761396754097        8.305058282038088       -0.274644848124374       -0.158553832119089        0.258295967151291
Se          8.225487411155862        8.581932461899189       11.644048694216819        0.285740191661769        0.164958452954157        0.322824000449581
Mo          6.614007320653410        9.568020135626588        9.993574521881680        0.082258368616889        0.047546917775491       -0.074676439118481
Se          6.662467106973470       11.512478190168784        8.305058282038088       -0.274655132541612       -0.158572344070117        0.258316278875337
Se          6.565769272676650       11.456647927539366       11.644048694216819        0.285744562539096        0.164974650911307        0.322796232523038
