# total energy = -9494.889604156184 eV 

 CRYSTAL
 PRIMVEC
        5.178263970089500        0.000000000000000        0.000000000000000
       -2.589131985044750        4.484506054696759        0.000000000000000
        0.000000000000000        0.000000000000000       19.999998575148734
 PRIMCOORD
12 1
Se          2.589137163308720        4.450775361021993        8.438581817881371        1.139091254661218       -0.452878683959986      -14.459432723184518
Se         -0.047746182936210        4.513324647169498        8.082627952577418       -0.645244851743426       -0.674104469176307       -5.587471949188787
Se          3.822882374196806        2.238974150602519        8.129400104060855        1.051275186968823        0.275913430990701       -5.734187902845884
Se          1.296641958547984        2.250904352963208        8.324948439842535        1.476694476902906       -1.865961469140523      -10.082518701155397
Se          2.618202758972832        4.452438619409186       11.928939899933290       -1.584435574552523        0.164716769149060        3.788143990665638
Se         -0.033269310355031        4.441036599973446       11.698429479304757        1.791272431610925        0.435367920949422        6.377644037321161
Se          3.899675511046836        2.245832761230902       11.548259824172160        1.943511374435348       -2.810903495179634        9.711367452772381
Se          1.253659778464256        2.225786665749892       11.635195108834008       -0.016317770610937        0.755316398339212        8.545300685916313
Mo          1.239700732280086        0.709161179398169       10.034937034580562        2.465938429968435       -0.177553007414446        0.320147223752917
Mo          3.829665382171226        0.710430889723635        9.827843759277565       -2.157731671739460        1.428801488487350        5.553776855880951
Mo          0.025075743275158        2.987397963074701        9.843146564961973       -3.419197721338482        2.164108267537554        2.607765428780939
Mo          2.612181473628412        2.972283646198803       10.036077288306775       -2.044855307452395        0.757176849417596       -1.040534655826144
