# total energy = -9527.955717067178 eV 

 CRYSTAL
 PRIMVEC
        6.506022605555400        0.000000000000000        0.000000000000000
       -3.253011302777700        5.634378226976116        0.000000000000000
        0.000000000000000        0.000000000000000       19.999994935150113
 PRIMCOORD
12 1
Se          3.215683648680586        5.625555409720722        8.077115161208214        0.059749121718145       -0.005681883413656        2.734527813222976
Se         -0.017090670782533        5.622798807942749        8.104040335761304       -0.115358251277066        0.005496763903369        2.555677169463504
Se          4.864245367304529        2.792974347952441        8.064250152107990       -0.089495255916956        0.100676988559152        2.747848190429850
Se          1.600736597052766        2.799606587396545        8.083811159673852        0.035678957393078        0.000394150290653        2.633898390093551
Se          3.225278080216999        5.628034204333439       11.937936662057934       -0.075476309669180       -0.013108261101336       -2.724720078723799
Se         -0.038179292456181        5.630215673713081       11.933211988441780        0.064827052729489       -0.056174772507020       -2.678162778997050
Se          4.846007034134376        2.813787114267613       11.911045969424652        0.019737853563489       -0.017575811949596       -2.617054314430451
Se          1.593445948120981        2.809466464655263       11.877018820595337        0.044809720127553        0.033607161540449       -2.353773747354251
Mo          1.595756887350474        0.928803690782652       10.024079510249519       -0.031707115455698       -0.086821564545463       -0.284579595176442
Mo          4.838990288754285        0.933044966919214       10.006225683015353        0.182885477752436       -0.046017882042607       -0.006586397909753
Mo         -0.020473802537422        3.740938925910715        9.990471349276001       -0.167104553721331        0.075994130077122        0.044801235483332
Mo          3.224087478080182        3.749160586677355        9.995376890320591        0.071452788535178        0.009210724078502       -0.051876400322328
