# total energy = -9529.1906269594 eV 

 CRYSTAL
 PRIMVEC
        6.771563749103600        0.000000000000000        0.000000000000000
       -3.385781874551800        5.864343495817446        0.000000000000000
        0.000000000000000        0.000000000000000       19.999962507379962
 PRIMCOORD
12 1
Se          3.356171180589720        5.839021233177673        8.170895886197485        0.033247721157975        0.087387464603993        2.148198788290973
Se         -0.017085332495363        5.852160098320058        8.164651150108062        0.027794151807007        0.005943107611505        2.208645964829158
Se          5.059067103304920        2.920179985665435        8.215370162588847        0.063564897623935       -0.116552015007986        1.766564376306661
Se          1.664532982607404        2.911453471461965        8.222147143588952        0.103633758515125       -0.035099687592138        1.605544340933860
Se          3.346463466799005        5.853498836473256       11.787688303737204        0.166429381729645       -0.100348144317962       -1.951132384719260
Se         -0.033514500463438        5.841795542845680       11.816921821598461        0.042398795616496        0.015079012554600       -2.152275531284182
Se          5.055578393661382        2.911405393359347       11.837931952442803        0.023550287033677        0.068545126671518       -2.279533624637099
Se          1.654974243219169        2.919550907393143       11.771490723249348        0.177692361268023       -0.038786651172021       -1.880006126431394
Mo          1.674653084630439        0.958697003750466        9.993033629283401       -0.083637508968527       -0.132432697886300       -0.015218109297746
Mo          5.057070169155310        0.965677131663041       10.026141158765519       -0.112519237898470       -0.066747410538286       -0.348503161851559
Mo         -0.009835019189198        3.889329575219017        9.974990797673914       -0.294266744883502        0.182957211562672        0.400083113846997
Mo          3.377007282245712        3.886249868025925        9.968026921514335       -0.147887863001386        0.130054426399974        0.497632354013592
