# total energy = -9514.56461310528 eV 

 CRYSTAL
 PRIMVEC
        7.568240097473099        0.000000000000000        0.000000000000000
       -3.784120048736550        6.554285130414141        0.000000000000000
        0.000000000000000        0.000000000000000       20.000020487584848
 PRIMCOORD
12 1
Se          3.763282413276177        6.534716688818114        7.917160184334921       -0.032852028204737       -0.013785747086900        3.794083755841541
Se         -0.035185505037162        6.543018291381033        7.896879571345723        0.052222985183255       -0.055502428730075        3.797192992283069
Se          5.659834944966311        3.262583541731561        7.868363956306463        0.023971691030011       -0.000084846442215        3.813872003049497
Se          1.877435914027928        3.261300725035040        7.916128633209635       -0.038722373564282        0.039216539812576        3.759766969511657
Se          3.761385055483740        6.531320062662369       12.139386731713945        0.001324632940276        0.002736940537507       -3.846780852659474
Se         -0.045434415777160        6.542293253979694       12.122634432258188        0.031378271214508        0.010107011040808       -3.834434152654624
Se          5.665898618932407        3.254587696068581       12.142818928598150       -0.028210670705153       -0.015491674796281       -3.841858987679719
Se          1.884764997738321        3.248518724334418       12.074520102662513       -0.006238784607103       -0.000818382501727       -3.793075111620908
Mo          1.875255504055845        1.064748453649139       10.010027566385439       -0.005694224714342        0.049122233385947        0.057823878811160
Mo          5.653958206530623        1.067544918365156        9.990210886514216        0.005666971008661       -0.003282271761561        0.036635922417089
Mo         -0.014492422962651        4.340848115370778        9.962010110263012        0.019337532622493        0.026405498369423        0.023386250578729
Mo          3.755635463481690        4.364191595127425        9.990354683076069       -0.022184002203587       -0.038622871827503        0.033387589232415
