# total energy = -9514.123579504423 eV 

 CRYSTAL
 PRIMVEC
        5.443805113637699        0.000000000000000        0.000000000000000
       -2.721902556818850        4.714471323538089        0.000000000000000
        0.000000000000000        0.000000000000000       19.999957500357748
 PRIMCOORD
12 1
Se          2.698218193910946        4.697435479815470        7.822790954357772        0.019448347218235        0.091984341999023        0.223120946202883
Se         -0.018460487520857        4.701080651719563        7.826619582494193       -0.067115592675412        0.018014185234372        0.985977365040257
Se          4.056068680927643        2.353056452583305        7.831584332757831        0.057269034501161        0.002242260068351        0.620796735084856
Se          1.329336924592485        2.348168459971769        7.806345219109473       -0.069364537614968       -0.063006967988765        0.221063291423957
Se          2.698092442012821        4.695609083199845       12.171715119559179        0.003114892871010        0.016428328096247       -0.853926219033493
Se         -0.019867166762221        4.696211168045414       12.178923261910148       -0.075223313005121        0.096452149957713       -0.245929212532827
Se          4.056962553727302        2.348791231276770       12.167792857974804       -0.066306209038769       -0.027358349626539       -0.618481455654114
Se          1.325282378543848        2.353303056954953       12.191490830395491        0.101633182251871       -0.040498235310883       -0.391655291030751
Mo          1.338383439930328        0.775369872423599       10.007033921606149       -0.243667669182154        0.010113181691151       -0.088702070237462
Mo          4.055838952351848        0.772311542710758       10.003924964505751       -0.082055765597297       -0.054361629747931       -0.227223143128757
Mo         -0.012639971093355        3.136341073261622        9.985215150710689        0.117617480633860        0.133200172522699       -1.315531488130494
Mo          2.716380905292087        3.122740270565709       10.036206728829622        0.304650663858448       -0.183209694005869        1.690490799106374
