# total energy = -9522.890438264583 eV 

 CRYSTAL
 PRIMVEC
        7.833781241021299        0.000000000000000        0.000000000000000
       -3.916890620510650        6.784250399255471        0.000000000000000
        0.000000000000000        0.000000000000000       19.999996028483224
 PRIMCOORD
12 1
Se          3.881825832297714        6.834681932750794        8.528261615600320       -0.101503341484239       -0.077721655062703        0.754218793909469
Se         -0.063991025445407        6.787568005611043        8.505224815104848        0.111372782486845       -0.061945616129786        1.198118410289243
Se          5.759818209207750        3.423488526204288        8.544111705185278        0.221077946718522       -0.135406437130716        0.952356319536536
Se          1.940150297545044        3.412534549894968        8.539852478324535       -0.093663016002722        0.012424347354998        0.379259225823158
Se          3.923598687387336        6.788816710340861       11.660571626588341       -0.239670630422541        0.047394194179504       -0.496774119395067
Se          0.019987109458342        6.766717613459940       11.778100279791136       -0.100962895358373       -0.003909878323520       -1.232838088664431
Se          5.844235819239120        3.364916910621420       11.735733624083444       -0.008768751247692        0.052056634734427       -0.928915304436014
Se          1.996989080717398        3.357790519826463       11.521415470135336       -0.341255990134254        0.196377090506324        0.906052273584277
Mo          1.907351038867011        1.165767704441979       10.107855864502364        0.323354933489501       -0.456058625770027       -0.548529420704416
Mo          5.799110105778341        1.106169080138413       10.090430401509836        0.153144228651813        0.208070472906120        0.038285800052522
Mo          0.010619473850328        4.523869225383709       10.171260923110944       -0.357886407029231        0.124855653486081       -0.443575400126341
Mo          3.860824248168660        4.529343471714935       10.138905839829278        0.434760626111509        0.093863562138867       -0.577658489868936
