# total energy = -38122.47753681955 eV 

 CRYSTAL
 PRIMVEC
       26.555490215667398        0.000000000000000        0.000000000000000
       -3.319436276958425        5.749422964633285        0.000000000000000
        0.000000000000000        0.000000000000000       20.000028456517960
 PRIMCOORD
48 1
Mo          1.651411581139752        0.914751660361052       10.000008917160937        0.011175304881423        0.584358273478740        0.000000000000000
Se          1.596415160903105        2.818012855157171        8.309154466403854        0.347636699699243       -0.031082851329341        0.083449304133068
Se          1.596415160903105        2.818012855157171       11.690860712368996        0.347636699699243       -0.031082851329341       -0.083449304133068
Mo         -0.030822957493325        3.760666369087825       10.000008917160937        0.502646264527629        0.729597641930867        0.000000000000000
Se         -0.072777976485058        5.666458302101498        8.317795622920032        0.540008266801733        0.186869403880070        0.118356930233284
Se         -0.072777976485058        5.666458302101498       11.682219555852820        0.540008266801733        0.186869403880070       -0.118356930233284
Mo          4.948331457944312        0.885949575673139       10.000008917160937       -0.758325875933530       -0.194994607719084        0.000000000000000
Se          4.906376438952579        2.791744164235833        8.317795622920032        0.173674496563503       -0.018524549439816        0.073718702763177
Se          4.906376438952579        2.791744164235833       11.682219555852820        0.173674496563503       -0.018524549439816       -0.073718702763177
Mo          3.267230838743444        3.742887468388436       10.000008917160937       -0.239243312886295        0.127330084273584        0.000000000000000
Se          3.246323701296649        5.653262879013332        8.328858640143880        0.262918812699847        0.105588312011238        0.004951175568884
Se          3.246323701296649        5.653262879013332       11.671159194177994        0.262918812699847        0.105588312011238       -0.004951175568884
Mo          8.246385254181080        0.868173330522771       10.000008917160937       -0.336719790800930       -0.077459145312698        0.000000000000000
Se          8.225478116734285        2.778548741147668        8.328858640143880        0.076644619467436        0.072228747815798       -0.001999290711100
Se          8.225478116734285        2.778548741147668       11.671159194177994        0.076644619467436        0.072228747815798        0.001999290711100
Mo          6.570489511062484        3.739520232229089       10.000008917160937       -0.068641028862263       -0.034051705475569        0.000000000000000
Se          6.574629511987107        5.655650217583720        8.340235012152272        0.038044887578718        0.000010798638100       -0.181953966661089
Se          6.574629511987107        5.655650217583720       11.659780166620582        0.038044887578718        0.000010798638100        0.181953966661089
Mo         11.549641270951099        0.864803438814403       10.000008917160937        0.151951236252186        0.079842559007643        0.000000000000000
Se         11.553789238522787        2.780933424169035        8.340235012152272       -0.038405870623778        0.151389192850120       -0.081538973631079
Se         11.553789238522787        2.780933424169035       11.659780166620582       -0.038405870623778        0.151389192850120        0.081538973631079
Mo          9.882033496328813        3.751201992374961       10.000008917160937        0.129628908636745       -0.166954658340085        0.000000000000000
Se          9.910453181957621        5.673166218929975        8.349763122041653       -0.205763421009168       -0.111147296638898       -0.350039910897372
Se          9.910453181957621        5.673166218929975       11.650260023378264       -0.205763421009168       -0.111147296638898        0.350039910897372
Mo         14.861182600668409        0.876487854509296       10.000008917160937        0.632845958321092        0.231723861222610        0.000000000000000
Se         14.889612908493300        2.798449425515289        8.349763122041653       -0.145035994101243        0.205051225115425       -0.149470120593478
Se         14.889612908493300        2.798449425515289       11.650260023378264       -0.145035994101243        0.205051225115425        0.149470120593478
Mo         13.203360524190593        3.775712709844022       10.000008917160937        0.303335029783256       -0.266297757983447        0.000000000000000
Se         13.250671785558826        5.702478169030028        8.355626574281272       -0.413844178332526       -0.202518944480957       -0.463431010267207
Se         13.250671785558826        5.702478169030028       11.644391260040601       -0.413844178332526       -0.202518944480957        0.463431010267207
Mo         18.182514939628231        0.900998571978358       10.000008917160937        1.000143892675400        0.345914831143143        0.000000000000000
Se         18.229826200996463        2.827761375615343        8.355626574281272       -0.224127019319207        0.221706581722205       -0.189940587977818
Se         18.229826200996463        2.827761375615343       11.644391260040601       -0.224127019319207        0.221706581722205        0.189940587977818
Mo         16.534114751078935        3.808386585005379       10.000008917160937        0.421133773270938       -0.312469134953333        0.000000000000000
Se         16.591333865846632        5.738004103840549        8.356710038282070       -0.539870969831603       -0.253471547024867       -0.489304290044555
Se         16.591333865846632        5.738004103840549       11.643310451588823       -0.539870969831603       -0.253471547024867        0.489304290044555
Mo         21.513269166516572        0.933669791590693       10.000008917160937        1.184532695117625        0.385877505426349        0.000000000000000
Se         21.570488281284270        2.863289965974884        8.356710038282070       -0.261310329843798        0.196232851554559       -0.195308796665710
Se         21.570488281284270        2.863289965974884       11.643310451588823       -0.261310329843798        0.196232851554559        0.195308796665710
Mo         19.872137215639306        3.842999010952480       10.000008917160937        0.466142239761619       -0.312832946213133        0.000000000000000
Se         19.928397677210217        5.772985651101648        8.352809036769390       -0.549369914703205       -0.264470217040224       -0.417035175891098
Se         19.928397677210217        5.772985651101648       11.647208797552484       -0.549369914703205       -0.264470217040224        0.417035175891098
Mo         24.851302253273030        0.968284873086816       10.000008917160937        0.941033690378177        0.280090189941552        0.000000000000000
Se         24.907552092647855        2.898268857686961        8.352809036769390       -0.740506323295390       -0.324039618567132       -0.497743939940626
Se         24.907552092647855        2.898268857686961       11.647208797552484       -0.740506323295390       -0.324039618567132        0.497743939940626
Mo         23.213901348771063        3.872966881660861       10.000008917160937        0.312519014376938       -0.381075711017849        0.000000000000000
Se         23.258509261235343        5.800760038318214        8.344664467920245       -0.647773018610998       -0.443121857326138       -0.346348576440163
Se         23.258509261235343        5.800760038318214       11.655350710852607       -0.647773018610998       -0.443121857326138        0.346348576440163
