# total energy = -38122.900546680066 eV 

 CRYSTAL
 PRIMVEC
       53.110927513609894        0.000000000000000        0.000000000000000
       -1.659716484800309        2.874735173529163        0.000000000000000
        0.000000000000000        0.000000000000000       19.999981973800079
 PRIMCOORD
48 1
Mo          1.634849948538437        0.943876781586372       10.048858351305311        0.020810775391861        0.012015027548919        0.165132002495051
Se          1.599860469492471        2.840149337532300        8.358624327555683        0.117621594400755        0.067908778354906        0.047864963378581
Se          1.670062493479961        2.880678286317936       11.697607429574060       -0.104166491328062       -0.060140700904488        0.032996010046071
Mo          4.954282918139056        0.943876781586372        9.985528881338084        0.000809383636644        0.000467426763475        0.005593694535839
Se          4.922464161465652        2.841976353438768        8.297010340547144        0.041111186578278        0.023735663654395       -0.003140089693243
Se          4.986330051800768        2.878851270411467       11.635998753658273       -0.042871878809452       -0.024752021187957       -0.015923877430715
Mo          8.273715887739673        0.943876781586372        9.928843588402808       -0.005070989029709       -0.002927716477275        0.027710590916947
Se          8.259721158339838        2.852269251190906        8.250771967053796        0.016437069850900        0.009489946006518       -0.023976319017768
Se          8.287938994127819        2.868558372659330       11.589760380164924       -0.018878847613671       -0.010899682499440       -0.025947584691894
Mo         11.593148857340292        0.943876781586372        9.904816204795649       -0.000176634866066       -0.000101815730658        0.036607897380115
Se         11.603447066185181        2.866295847147250        8.241132333710075       -0.015823604362643       -0.009135647832663       -0.026240690583182
Se         11.583079025483713        2.854531776702986       11.580120746821203        0.016891898203257        0.009752455756522       -0.027691821855487
Mo         14.912587138033661        0.943876781586372        9.924477870161189        0.004864786464084        0.002808674347743        0.029022882556537
Se         14.942509834594832        2.877624407985903        8.272510269685116       -0.040739147784687       -0.023520719334118       -0.011280720158114
Se         14.882887507368052        2.843203215864333       11.611488060610741        0.044160002068532        0.025495841664708       -0.021986284282183
Mo         18.232020107634280        0.943876781586372        9.978799726822109       -0.000520648622682       -0.000300562093785        0.010610947485478
Se         18.267875294798721        2.881055373903282        8.330507402529976       -0.048822442623455       -0.028187530766367        0.009801306738404
Se         18.196377364179895        2.839772249946953       11.669490504548355        0.049349261896480        0.028491949516616       -0.006580227259410
Mo         21.551447766142150        0.943876781586372       10.042846194310771       -0.004175216288265       -0.002410667400626       -0.019306165149917
Se         21.576845411679155        2.875011350352234        8.388504535374839       -0.034694738663386       -0.020030959454777        0.022621089936209
Se         21.526278497593449        2.845816273498002       11.727487637393217        0.031858296389099        0.018393423120030        0.015380860200540
Mo         24.870886046835516        0.943876781586372       10.087236307526647       -0.001522093751249       -0.000878803453001       -0.033806422124439
Se         24.874205479805116        2.862270038841718        8.419882471349879       -0.002667520721149       -0.001540091481415        0.027660968603773
Se         24.867784368668723        2.858562896101269       11.758870884461009        0.001364999277936        0.000788043470875        0.027613146063615
Mo         28.190319016436138        0.943876781586372       10.091580781397258        0.001571973174854        0.000907599821268       -0.034049391481691
Se         28.170094375238950        2.848673641398234        8.410242838006159        0.031415552226996        0.018137855351661        0.026215750871379
Se         28.210766723528874        2.872153982452001       11.749225940024537       -0.028503776596440       -0.016456610243652        0.021023919939122
Mo         31.509757297129504        0.943876781586372       10.053887956140850        0.002538965505672        0.001465786566870       -0.022183230872294
Se         31.475314860636932        2.840468003097382        8.364004464512812        0.049742640855840        0.028718978027149        0.016441697838657
Se         31.544417488424887        2.880359620752854       11.702987566531188       -0.047099802736062       -0.027193027619436        0.001506924235822
Mo         34.829184955637373        0.943876781586372        9.991466683034105        0.000224714516654        0.000129840767632        0.004805651064964
Se         34.796394268990468        2.841418688699875        8.302390477504272        0.043719057679446        0.025241302338063       -0.003583605186639
Se         34.862204019272582        2.879414246243112       11.641378890615401       -0.045156819209341       -0.026071254809183       -0.017042564915797
Mo         38.148612614145236        0.943876781586372        9.932959685285111       -0.004101425594581       -0.002367987069088        0.027102010526878
Se         38.132573114036127        2.851084877507352        8.253682445881541        0.018754920385951        0.010828205799635       -0.022959447263345
Se         38.164885802335412        2.869742746342884       11.592670858992669       -0.021436839291234       -0.012376524814840       -0.025783034016083
Mo         41.468056205931362        0.943876781586372        9.905219847844753       -0.002309108780399       -0.001333117584497        0.036450288685941
Se         41.476176866748190        2.865037118165178        8.240234759035094       -0.012873519277875       -0.007432548338023       -0.027000451906651
Se         41.460153299917337        2.855790505685058       11.579217861053472        0.013789346632934        0.007961167384065       -0.027881826463962
Mo         44.787483864439231        0.943876781586372        9.920983171130793        0.004590192523825        0.002650294322275        0.030580714657688
Se         44.816094721090813        2.876864921722459        8.268224217834767       -0.039302928917377       -0.022691538194290       -0.013236044985520
Se         44.759106695868709        2.843962702127777       11.607207319853146        0.042762863986727        0.024689286242804       -0.023111656638470
Mo         48.106922145132593        0.943876781586372        9.973010635723124        0.002099820889603        0.001212275681949        0.013203906181651
Se         48.142931353986825        2.881145662480056        8.324792666729513       -0.049882508930279       -0.028799710702469        0.006878732469748
Se         48.071125379988423        2.839687272462931       11.663781079840641        0.050719146272604        0.029282821202231       -0.009357534134577
Mo         51.426355114733212        0.943876781586372       10.037428879704382       -0.007207576710938       -0.004161332324993       -0.006949694948691
Se         51.453303599353625        2.875908925027213        8.383990106536181       -0.221497808052270       -0.127881843258412       -0.101213835138984
Se         51.399635007101118        2.844918698823022       11.722967897461809        0.192293405531479        0.111020541196438       -0.092593436609953
