# total energy = -9526.886470970947 eV 

 CRYSTAL
 PRIMVEC
        7.302698953924899        0.000000000000000        0.000000000000000
       -3.651349476962450        6.324319861572811        0.000000000000000
        0.000000000000000        0.000000000000000       20.000054981792154
 PRIMCOORD
12 1
Se          3.634221726835914        6.264937234759076        8.432762406248962       -0.232207743053665       -0.118294195288131        0.199054638534281
Se          0.031175221834305        6.258600682876755        8.485525866730860       -0.269914787526110        0.848940847777291       -0.689385056308774
Se          5.423088671779671        3.189612236694000        8.243930677238163        0.027824233727428       -0.265013234270400        1.914587222284298
Se          1.865079371766708        3.106311810266369        8.218650924269362       -0.264452990641351        0.151375308886848        1.772752253048435
Se          3.693157428473670        6.312347816907747       11.574664650137180       -0.302069275131668        0.032424967778922        0.150543042421850
Se          0.060286700944232        6.262290736658173       11.708312073962855       -0.404739126641146        0.024383324829969       -1.593923720786024
Se          5.401991904771678        3.131173848855007       11.777243709928744        0.288422624787914       -0.019937885478771       -2.019426571610166
Se          1.710772612600380        3.178910861646918       11.622725902762646        0.090289470038173       -0.204571971272126       -1.306900805184225
Mo          1.741782793438327        1.022032435888965        9.944384576216647        1.138901250052742        0.313199842798105        0.662291016205256
Mo          5.478140798113730        0.986937125256193       10.026906534935788       -0.041711796544986        0.701805804117739        0.377780583734740
Mo         -0.029234164452352        4.220494083175332        9.848558560543244        0.018266667677569       -1.103646010649877        1.795841798189842
Mo          3.629918976612262        4.192207078777304       10.122240348699698       -0.048608526744901       -0.360667056340000       -1.263214143419079
