# total energy = -9518.42781868765 eV 

 CRYSTAL
 PRIMVEC
        7.833781241021299        0.000000000000000        0.000000000000000
       -3.916890620510650        6.784250399255471        0.000000000000000
        0.000000000000000        0.000000000000000       19.999996028483224
 PRIMCOORD
12 1
Se          3.889926745479054        6.768702693626415        8.800764396337989        0.051577638001560       -0.083120459891878       -4.010595421306316
Se         -0.012463545954465        6.761484647590938        8.802132957920795       -0.147730254307211        0.064570456519397       -3.864431226634047
Se          5.863909577447821        3.369424468347504        8.793184429609179       -0.225504874118690        0.005235282595089       -4.220232982289101
Se          1.940036707717049        3.373861522042418        8.844012352435296       -0.047128084883467        0.036040197548569       -4.199321162497876
Se          3.885554712168440        6.761584136612700       11.187345435868231        0.000980362073228       -0.050436839019416        4.129168067191170
Se         -0.041147719346588        6.775320672018830       11.173857231327441       -0.009023804795198       -0.036637465079675        3.837265452720292
Se          5.854144769130888        3.366580805757013       11.129990406512093       -0.115994856704108       -0.021546111224390        4.180211686827638
Se          1.918035533101640        3.370993574730080       11.198183472215183       -0.060560305127805        0.121060960635629        4.170444318666121
Mo          1.912845653029464        1.126357517774649        9.974996501410892       -0.004246435877639       -0.303346599752648       -0.163973462893171
Mo          5.860950758273087        1.100860909969496        9.967770621594173        0.092700651659661       -0.093855848825938       -0.008409825086080
Mo         -0.039188490658209        4.500291893982609       10.002225941626557        0.358052243257196        0.122141338666498        0.301219010936503
Mo          3.879550902225322        4.504831570211780        9.961940721594605        0.106877463712043        0.239894316497471       -0.151344455635134
