# total energy = -9440.19352212684 eV 

 CRYSTAL
 PRIMVEC
        4.647181682993100        0.000000000000000        0.000000000000000
       -2.323590841496550        4.024575517014100        0.000000000000000
        0.000000000000000        0.000000000000000       20.000094397824135
 PRIMCOORD
12 1
Se          2.300018012409568        4.016384859297824        8.338625839934513        0.403341731448910        0.041403778248703      -17.302244651287289
Se         -0.018085901673873        4.021894093183012        8.336017376855848       -0.163004670789336        0.094895346298286      -17.365426454369100
Se          3.474159136016882        2.006603325872413        8.371379176436248       -0.477392877999311       -0.137457149928007      -18.148775088774382
Se          1.137183946555144        2.007717255321826        8.339946104250650        0.560548819130661       -0.402549831321571      -17.287052767253499
Se          2.307665879305269        4.009170109734978       11.689454350702777       -0.101014317444564        0.321783474535509       17.346049583850672
Se         -0.019899696684745        4.014027344030041       11.664260119926599        0.321049938475997       -0.178244120252851       18.144244545870539
Se          3.470982322618388        2.006169743821389       11.634296021870995        0.194840341460511       -0.279487008870533       18.790692417320400
Se          1.152745963856983        2.000652609727340       11.668922172590976       -0.282649467171269        0.031031429243151       17.808750400493967
Mo          1.153694453638481        0.655701535052604       10.017614939828288       -0.575474850978843        0.204042323784361       -0.741773363499132
Mo          3.467569897108566        0.655432927951327       10.012479339350412        0.366078716690723       -0.443902701704946       -0.363762151707826
Mo         -0.012492553800222        2.670657240563860       10.002487434013807        0.572419350617383        0.055244289857397       -0.117930898249193
Mo          2.309405784127382        2.675645525382385       10.010263098405794       -0.818742970551294        0.693240170110501       -0.762771572395159
