# total energy = -9498.109833564155 eV 

 CRYSTAL
 PRIMVEC
        6.373252033781299        0.000000000000000        0.000000000000000
       -3.186626016890650        5.519395592555450        0.000000000000000
        0.000000000000000        0.000000000000000       20.000010552493670
 PRIMCOORD
12 1
Se          3.196825769445513        5.526485835443031        8.869566904535368        0.446458636499061       -2.430589859479133      -15.787784251623249
Se          0.005001728196112        5.556657447896155        8.849004881498779       -2.369617149220078       -2.470478485958224      -18.485374551893628
Se          4.708973501265024        2.791393890617329        8.787422696397165       -1.089726051918018        3.209142870126258      -14.115916218141315
Se          1.542577460980002        2.722099433229636        8.837058220561456        3.772704509286840       -0.623619293395871      -17.015408654968791
Se          3.197955747031103        5.478757188287247       11.186198768725431       -2.300506893821323        4.053001930235741       15.717825531802346
Se          0.014810163076101        5.464655730837302       11.125485257876020        1.598759967992272        0.442215285946594       17.024877775030401
Se          4.824881924027794        2.691623179329297       11.278297996540401        0.479902275805424        0.015403743028895       12.147178710883331
Se          1.570505051392032        2.800554803090687       11.168374694762553       -2.233261717488709       -3.169471501961324       18.156653723710111
Mo          1.605059549268787        0.885657694224012       10.021504167332390       -0.625956684323676        2.501137876407784        1.666680316316571
Mo          4.733252404887713        0.959567660734570        9.855182683657207        3.745834155258251       -0.039718933594661        4.056869128227722
Mo          0.022310206069455        3.644957799574828        9.935838737445522       -5.089992061660752        0.498242477066246        0.093000956643016
Mo          3.138955366328373        3.665066047066612       10.135856879273714        3.665400756480276       -1.985266108422304       -3.458602723096948
