# total energy = -9319.390221956723 eV 

 CRYSTAL
 PRIMVEC
        3.850505334623600        0.000000000000000        0.000000000000000
       -1.925252667311800        3.334633882417403        0.000000000000000
        0.000000000000000        0.000000000000000       20.000006021201802
 PRIMCOORD
12 1
Se          1.911504438014526        3.332907315825357        7.962849652608005       -1.411665078264255       -0.665171681473666      -13.111307345721967
Se         -0.023171956053231        3.329512325271820        7.937225309707153        1.313723487580024       -0.527761839864955      -14.130961549229459
Se          2.866740881832216        1.663445258094737        7.962289019031285        0.046942194041887       -0.120714889995565      -12.595762622204658
Se          0.943259061923810        1.659256293341200        7.979886983562114        0.025761950960745        1.364862752296807      -12.026207481788106
Se          1.905923515582523        3.331928517369296       12.058362256623171        0.092027022330561        0.061404141562197       13.628289573658737
Se         -0.019669921451391        3.328666369249803       12.043743428069739        0.150247879647114        0.080353951654811       12.983725036115615
Se          2.871387671670040        1.662076788498812       12.054176757324434        0.001098118650605       -0.083360601034389       13.621934060915979
Se          0.949082951242428        1.660221229978057       12.049830691953247       -0.271948016814095        0.012084704475708       13.368871319476328
Mo          0.939650753374734        0.550437053544579        9.985811973190145        0.927510710151712       -0.145725821387493       -1.433312490998441
Mo          2.872498927509612        0.548732819883475        9.999142037608079       -1.035137393659554        0.571696098975109       -1.124573771287822
Mo         -0.020957145384756        2.221004976407303       10.032391921273621       -0.434239977488826        0.082717310736142        0.261067103376115
Mo          1.901359511609393        2.219420878512639       10.033418080945298        0.595679102864083       -0.630384125944706        0.558237910577245
