# total energy = -9347.825412669654 eV 

 CRYSTAL
 PRIMVEC
        4.116046478171800        0.000000000000000        0.000000000000000
       -2.058023239085900        3.564599151258733        0.000000000000000
        0.000000000000000        0.000000000000000       19.999952158366341
 PRIMCOORD
12 1
Se          2.044644853217898        3.561344593308442        8.301096829131559       -0.792959165203918       -0.336786896623409      -25.693965306371322
Se         -0.019554925213146        3.550235383863857        8.264119913990255        0.905049285793125       -0.458185443254880      -23.735546669149251
Se          3.076305148669551        1.775925054448622        8.323952823620200        0.567317508335960       -0.170341831157475      -25.175249639909058
Se          1.018351470769133        1.768106624163335        8.272046596297917       -0.613511511023770        0.957882394029034      -24.384737651786960
Se          2.046322142157753        3.561562332167138       11.706697632589641       -0.649439608424443        0.027014592980354       23.978665150450887
Se         -0.021552442569003        3.555956688468516       11.713447125604548        0.424464896014380        1.204198043539585       24.847674752916308
Se          3.060590083215891        1.779636493557989       11.722305269230221       -0.463538482427346       -0.900723659902752       24.276649197945126
Se          1.007948986504849        1.778763480099969       11.671365078016366        1.090941670035570       -0.558810495506980       26.097468760281306
Mo          1.003512711610676        0.591620352144671        9.981825137423728        2.094298414656173       -1.638932187276705       -0.145868003455810
Mo          3.074961259494428        0.581329824344594        9.993818473651825       -2.008585767399415       -0.158736894745928        1.033942087266049
Mo         -0.013417488309544        2.362550584192032       10.038314170894804       -1.452398055398599        1.937485734375506       -2.163229978305415
Mo          2.036846591560354        2.365558590958280        9.976044150145135        0.898360815042283        0.095936386433219        1.064197557228580
