# total energy = -38122.069486968285 eV 

 CRYSTAL
 PRIMVEC
       13.277745107833699        0.000000000000000        0.000000000000000
       -6.638872553916849       11.498859207011680        0.000000000000000
        0.000000000000000        0.000000000000000       20.000015178772852
 PRIMCOORD
48 1
Mo          1.634851577441262        0.943875066480574       10.006456590185302        0.038402271077745        0.003030560649657       -1.126759209950932
Se          1.572131492875387        2.876708455180861        8.295308433805404        0.625946657016868       -0.149977399473751        0.252840083806444
Se          1.697796055899458        2.844126196460748       11.634298845984137       -0.635333501740574        0.165673477062640        0.357016345330882
Mo         -0.024865233263440        3.818589204346238        9.988226246152244        0.106042111921873        0.003190483337710        0.424637417113550
Se         -0.081424444099279        5.782784626991228        8.289487470350132        0.599127725074471       -0.406420628859586        0.300002364377228
Se          0.031917043690211        5.687479628156220       11.628477882528863       -0.641061150810940        0.433807260633531        0.446358363430989
Mo         -1.684584699517163        6.693304669986414        9.986278400944926       -0.007152555078714        0.015848801184876        0.559909128378447
Se         -1.656664257104411        8.623005838615763        8.340363806279818       -0.239145353812101       -0.106233402082502       -0.106807272564392
Se         -1.712280748037594        8.596686692263015       11.679348907360506        0.238712122735944        0.095574632056867       -0.089964996674309
Mo         -3.344301510221865        9.568020135626588       10.003307109045721        0.093498208216481       -0.036067451254250       -0.088385824407388
Se         -3.270333847775145       11.445037867217074        8.377627797924951       -0.842411785493641        0.380518038493109       -0.662042647528954
Se         -3.418047434325284       11.524077628294988       11.716618210103684        0.764065094973289       -0.374558732924454       -0.451082253378910
Mo          4.954287854399686        0.943875066480574        9.988226246152244        0.120379360883169       -0.022217169449180        0.209804682762905
Se          4.897729971338358        2.908069161351053        8.289487470350132        0.589772762044204       -0.456107476751909        0.258239659966912
Se          5.011070131353337        2.812764162516045       11.628477882528863       -0.644795679820549        0.504905750994854        0.407989002488406
Mo          3.294569715920474        3.818589204346238        9.986278400944926        0.031156642023025        0.040465068065290       -0.138127179711073
Se          3.322490158333227        5.748291700750098        8.340363806279818       -0.237965731154884       -0.061161429315376       -0.100181279648272
Se          3.266873667400043        5.721971226622840       11.679348907360506        0.231932120671682        0.059047467352071       -0.081225041794884
Mo          1.634851577441262        6.693304669986414       10.003307109045721        0.053325474711186       -0.051197885895040        0.056681537166431
Se          1.708820567662492        8.570327712674942        8.377627797924951       -0.736172726981658        0.400928492943974       -0.518863247849632
Se          1.561106981112353        8.649366145978345       11.716618210103684        0.687111171657416       -0.377836119587826       -0.332223443584403
Mo         -0.024865233263440        9.568020135626588       10.015777567251000       -0.023760860476629        0.004198099116620        0.188564532951351
Se         -0.006916377426671       11.446977745777330        8.349783038659314       -0.141536978246387        0.307811065275737       -0.276944443818828
Se         -0.042592350756909       11.522148371930818       11.688768139740002        0.136842913108457       -0.307377319978717       -0.245031640018366
Mo          8.273725459132622        0.943875066480574        9.986278400944926       -0.003539896413377        0.014629840631723        0.538022088722612
Se          8.301644573770863        2.873577562884434        8.340363806279818       -0.224182555172293       -0.114572521800070       -0.104235911144420
Se          8.246028082837681        2.847257088757175       11.679348907360506        0.224488773695559        0.102110122101290       -0.090169142356486
Mo          6.614007320653410        3.818589204346238       10.003307109045721        0.052339456208477       -0.048893919323260        0.041774274379708
Se          6.687976310874640        5.695612247034767        8.377627797924951       -0.739171148827445        0.404233647533890       -0.515446764443113
Se          6.540261396549990        5.774650680338170       11.716618210103684        0.687901529122169       -0.379697341997503       -0.328546507311328
Mo          4.954287854399686        6.693304669986414       10.015777567251000       -0.016695722944439        0.002602471782118        0.171461547084280
Se          4.972238038010967        8.572262280137155        8.349783038659314       -0.215831608374902        0.309782845170724       -0.191489935434748
Se          4.936562064680729        8.647431578516134       11.688768139740002        0.206511355252814       -0.304914973381469       -0.149738029662532
Mo          3.294569715920474        9.568020135626588       10.006456590185302        0.073574978032274        0.006768689205299        0.083873279233712
Se          3.231849631354600       11.500848213228833        8.295308433805404        0.627653356057542       -0.216654875974817        0.309840695017689
Se          3.357514194378670       11.468268610057741       11.634298845984137       -0.688448917229670        0.219199755020401        0.445609657856050
Mo         11.593157752767514        0.943875066480574       10.003307109045721        0.079854128977036       -0.044027333086160        0.114308726497911
Se         11.667128070763255        2.820898109169104        8.377627797924951       -0.928325750217836        0.424358452295965       -0.550456463384417
Se         11.519418467536649        2.899936542472505       11.716618210103684        0.796264062683403       -0.392637709987426       -0.327378711733934
Mo          9.933443597611834        3.818589204346238       10.015777567251000       -0.021993226263819        0.003744813426847        0.168456697477719
Se          9.951392453448603        5.697546814496979        8.349783038659314       -0.185230067772307        0.324478506072771       -0.198753305109203
Se          9.915716480118366        5.772716112875958       11.688768139740002        0.183200695140785       -0.324344808648675       -0.162730333959508
Mo          8.273725459132622        6.693304669986414       10.006456590185302        0.072807503395876        0.004823905905562        0.067349820278012
Se          8.211004046792237        8.626136730912190        8.295308433805404        0.659592642232392       -0.186247196637161        0.281681189288296
Se          8.336668609816307        8.593555799966587       11.634298845984137       -0.743332481152438        0.185454782288961        0.420736280544683
Mo          6.614007320653410        9.568020135626588        9.988226246152244       -0.004266747601684       -0.056404115011431       -0.133839091943620
Se          6.557448109817570       11.532218213820601        8.289487470350132        0.502551647889038       -0.475457350675088        0.370139261726782
Se          6.670788269832549       11.436907903887548       11.628477882528863       -0.562699804996023        0.475819105051441        0.495126555753512
