# total energy = -38121.45254733799 eV 

 CRYSTAL
 PRIMVEC
       13.277745107833699        0.000000000000000        0.000000000000000
       -6.638872553916849       11.498859207011680        0.000000000000000
        0.000000000000000        0.000000000000000       20.000015178772852
 PRIMCOORD
48 1
Mo          1.594556276588008        1.027777137816975       10.000007589386426        0.440723788336628       -2.065848117029371        0.000000000000000
Se          1.657678676830649        2.815543194567114        8.332496742303427       -0.417099196388405        1.022384973394659       -0.263358214426348
Se          1.657678676830649        2.815543194567114       11.667518436469427       -0.417099196388405        1.022384973394659        0.263358214426348
Mo         -0.075302075830057        3.873944123700797       10.000007589386426        1.160946155513183       -1.649811558052100        0.000000000000000
Se         -0.026763950813860        5.713696535871637        8.339470214034060        0.020027617019174        0.485735854373343       -0.280341129722163
Se         -0.026763950813860        5.713696535871637       11.660547620287813        0.020027617019174        0.485735854373343        0.280341129722163
Mo         -1.697854477977932        6.668193798438479       10.000007589386426        0.354653500470413        0.760897751574365        0.000000000000000
Se         -1.709321138653058        8.631953711043932        8.338042856434969        0.541249338851948       -0.437774988804015       -0.296588709185449
Se         -1.709321138653058        8.631953711043932       11.661968339014351        0.541249338851948       -0.437774988804015        0.296588709185449
Mo         -3.307960321861724        9.485995537448435       10.000007589386426       -1.316624721682911        2.174563663212305        0.000000000000000
Se         -3.368571900504474       11.529477687230344        8.329555721762040        0.042937441969345       -0.615436496820324        0.352666293949569
Se         -3.368571900504474       11.529477687230344       11.670458129236300        0.042937441969345       -0.615436496820324       -0.352666293949569
Mo          4.972937775178150        0.876653826323144       10.000007589386426        0.207529255448961        1.664340868505319        0.000000000000000
Se          4.926484256143882        2.901041250865477        8.333298718107939        0.695332020576744       -0.859212409493910       -0.246288910025732
Se          4.926484256143882        2.901041250865477       11.666717788439424        0.695332020576744       -0.859212409493910        0.246288910025732
Mo          3.346417982792053        3.739001072395372       10.000007589386426       -1.591165697193179        2.133860767998383        0.000000000000000
Se          3.282842811441235        5.773032123209525        8.324265868111080        0.216041153376130       -0.719936460377334        0.027939419200496
Se          3.282842811441235        5.773032123209525       11.675747982887261        0.216041153376130       -0.719936460377334       -0.027939419200496
Mo          1.671271104497539        6.675995801463841       10.000007589386426       -1.233977602094420        0.356421134683223        0.000000000000000
Se          1.650305544972269        8.609475816350880        8.321093814804819       -0.332146824675979       -0.029534532314135        0.199579915144720
Se          1.650305544972269        8.609475816350880       11.678918708419012       -0.332146824675979       -0.029534532314135       -0.199579915144720
Mo         -0.038034100861390        9.629225229475658       10.000007589386426        0.451890865684261       -1.825780765211868        0.000000000000000
Se          0.003379186129944       11.446268714188571        8.326756773093310       -0.134467726947303        0.664736650624492       -0.290256336381479
Se          0.003379186129944       11.446268714188571       11.673258405679542       -0.134467726947303        0.664736650624492        0.290256336381479
Mo          8.281394684706907        0.977583277985832       10.000007589386426       -0.678371473888422       -0.907903725797578        0.000000000000000
Se          8.299963611240212        2.834214359737750        8.323660402934161       -0.517342953871400        0.502328476034969        0.045879042409892
Se          8.299963611240212        2.834214359737750       11.676358759162222       -0.517342953871400        0.502328476034969       -0.045879042409892
Mo          6.573731936417817        3.902483309035575       10.000007589386426        0.879838579596346       -2.484437782586018        0.000000000000000
Se          6.636842386689861        5.690256004658267        8.332491431205383       -0.403479799750332        0.974531837095902       -0.234929514075746
Se          6.636842386689861        5.690256004658267       11.667527730891001       -0.403479799750332        0.974531837095902        0.234929514075746
Mo          4.903843045186004        6.748699422576296       10.000007589386426        1.458070168615879       -1.441365703916787        0.000000000000000
Se          4.952407725692416        8.588386773796106        8.339467558485039        0.074383076116763        0.500071303561623       -0.280843780614678
Se          4.952407725692416        8.588386773796106       11.660547620287813        0.074383076116763        0.500071303561623        0.280843780614678
Mo          3.281268070871446        9.542959719510064       10.000007589386426        0.416842857288744        0.843485221542875        0.000000000000000
Se          3.269841243431644       11.506647932291935        8.338046839758499        0.182219047515402       -0.338834009874666       -0.086205013732035
Se          3.269841243431644       11.506647932291935       11.661968339014351        0.182219047515402       -0.338834009874666        0.086205013732035
Mo         11.561098637204649        0.952123201741560       10.000007589386426        0.749724246465959       -0.211205420390744        0.000000000000000
Se         11.575478435156432        2.865634815760928        8.339722491191109        0.214434984513959       -0.168890699885170       -0.403540734922469
Se         11.575478435156432        2.865634815760928       11.660297998679786        0.214434984513959       -0.168890699885170        0.403540734922469
Mo          9.952060324027528        3.751401158551578       10.000007589386426       -0.502314592071698        1.782872119610790        0.000000000000000
Se          9.905636016032497        5.775743438760545        8.333305356980492        0.587249480274819       -1.001953692998887       -0.358092352484425
Se          9.905636016032497        5.775743438760545       11.666708494017847        0.587249480274819       -1.001953692998887        0.358092352484425
Mo          8.325565759357136        6.613696621417886       10.000007589386426       -1.568861110197475        1.962811626045353        0.000000000000000
Se          8.261981293584743        8.647762194369317        8.324271179209124        0.356470242775535       -0.826656829616063        0.042498297353275
Se          8.261981293584743        8.647762194369317       11.675747982887261        0.356470242775535       -0.826656829616063       -0.042498297353275
Mo          6.650449419876370        9.550658156123585       10.000007589386426       -0.864967312269957        0.416612229232178        0.000000000000000
Se          6.629445354890287       11.484217837481271        8.321092487030308       -0.307775841146696        0.093684870389354        0.261824807816137
Se          6.629445354890287       11.484217837481271       11.678918708419012       -0.307775841146696        0.093684870389354       -0.261824807816137
