# total energy = -9410.359790961214 eV 

 CRYSTAL
 PRIMVEC
        4.116046478171800        0.000000000000000        0.000000000000000
       -2.058023239085900        3.564599151258733        0.000000000000000
        0.000000000000000        0.000000000000000       19.999952158366341
 PRIMCOORD
12 1
Se          2.039047853216880        3.549412586172870        7.624637761792753        0.452563209461206        0.426082634845944       -4.745999645209852
Se         -0.012436634433796        3.554312739505133        7.624447188840814       -0.290410859750483       -0.298614482270937       -4.974836670513708
Se          3.076372240227145        1.771896679760435        7.668735025736647        0.475043145770821        0.004269575816425       -3.323653685422900
Se          1.020883662562504        1.770167528634955        7.611791992339026       -0.664492395715085       -0.173605333857576       -5.306261786209999
Se          2.033704401678917        3.557308398131947       12.404705849660267        0.510351349922463       -0.016230867285274        5.220681550825183
Se         -0.021163887781464        3.554835477407861       12.338015194993039       -0.264222362584785        0.371999455694736        2.628920475039847
Se          3.072974032254767        1.771588387879220       12.393113004754495       -0.338063707023527        0.060770621460326        4.671257900041908
Se          1.017232729336366        1.777031036137307       12.381095383852179        0.037975981983223       -0.446160388399154        4.228304964268907
Mo          1.019152453413785        0.583235553863988        9.971360912462272       -0.574318368260411        0.398305966548242       -0.390295948182296
Mo          3.078109623445582        0.581002187044932        9.975446088591855        0.529709708489864       -0.087684684262176       -0.133223569571916
Mo         -0.011615483161401        2.372635721272848       10.038771463658531        0.395049405829776       -0.444277054492415        3.103884430797934
Mo          2.052830023244391        2.362469498076412        9.961229264056250       -0.269185108123062        0.205144813312292       -0.978778015863110
