# total energy = -9519.909982073628 eV 

 CRYSTAL
 PRIMVEC
        6.705204922078999        0.000000000000000        0.000000000000000
       -3.352602461039500        5.806875092643465        0.000000000000000
        0.000000000000000        0.000000000000000       20.000050559404965
 PRIMCOORD
12 1
Se          3.339909508122004        5.786501327487728        8.666249384819755        0.053862578401449        0.295973958145038       -8.129723840389589
Se         -0.014237832131543        5.783935916084540        8.676169064981480       -0.180808282580757        0.041710768103263       -8.555940172659628
Se          4.993850221267604        2.894029473295563        8.687502872861270        0.468319193780508        0.036733624380852       -9.018942322728005
Se          1.647830930420602        2.894922606591184        8.687614179262976       -0.376957830355687       -0.295169973827444       -8.765917376521704
Se          3.332380233515001        5.782258273813037       11.326643368330890       -0.214757658104806       -0.084154300934745        7.996715215137950
Se         -0.013615589114774        5.790306531281009       11.307154690224868        0.163649760860600        0.346797491252609        9.087777984186500
Se          5.020945954357726        2.881363341197756       11.289632648722492       -0.538028259372955        0.068183886516027        9.223504523803754
Se          1.647124872342307        2.898438145531831       11.269497588861981        0.263864207754466       -0.118622268198029        9.598107479722332
Mo          1.665448185832873        0.945679975033779       10.012807411845442       -0.409657906295730       -0.164459401607675       -0.518017097421361
Mo          5.002644097522912        0.962765507695729        9.983514383102357        0.577368212192389       -0.754320609640126       -0.238091715266051
Mo         -0.031461492014887        3.868093251284995       10.021188247477550        0.005167405441317       -0.088412306781777       -0.654750995707094
Mo          3.328981365140000        3.846726445280298        9.971586494066468        0.187978064058345        0.715738875481576       -0.024721425046674
