# total energy = -9497.770483644419 eV 

 CRYSTAL
 PRIMVEC
        6.638793177329500        0.000000000000000        0.000000000000000
       -3.319396588664750        5.749360861396781        0.000000000000000
        0.000000000000000        0.000000000000000       19.999981854470612
 PRIMCOORD
12 1
Se          3.287693695725731        5.734360508212604        8.920989199882577       -0.203287447559079        0.279905841762558      -15.742757787402402
Se         -0.018269294944693        5.728309248231469        8.908672910779995       -0.037691617846587        0.073976584525424      -16.182939329840149
Se          4.970763861438894        2.849229289294462        8.884809104824766        0.070092931465862        0.023430216462422      -16.184407173290467
Se          1.641658701631618        2.855613816693100        8.877135323791093       -0.030776118585213       -0.165083922844462      -15.610222502454150
Se          3.299068603955767        5.735073514599850       11.106921393605742       -0.347085454935278       -0.329588832998416       15.492729977489732
Se         -0.037694403781559        5.734426232265060       11.094702030883548        0.300385458919349       -0.398520653758089       15.927066885611032
Se          4.966299936906458        2.854069633400053       11.066115387461968       -0.108988854571038        0.502845268001187       16.503081668494875
Se          1.641296887403453        2.849176178949044       11.066910714884612        0.237897339780250        0.399453964622452       15.851035731631852
Mo          1.640387372738159        0.934641833591016       10.005608010142645       -0.083915702454819        0.169845865136164       -0.063770843079130
Mo          4.941217248523872        0.951911990162521       10.010857303907958        0.213413998992640       -0.734971249937809        0.406451225000870
Mo         -0.019089849781411        3.813797474770244        9.993511465094231        0.130107648259182        0.200358959750511        0.183986938838643
Mo          3.310952707622505        3.809213388081298        9.967318106613078       -0.140151924354837       -0.021651783611512       -0.580254276779850
