# total energy = -9528.792264773328 eV 

 CRYSTAL
 PRIMVEC
        7.169928382150800        0.000000000000000        0.000000000000000
       -3.584964191075400        6.209337227152147        0.000000000000000
        0.000000000000000        0.000000000000000       20.000070686449963
 PRIMCOORD
12 1
Se          3.554578751584683        6.198778790616591        8.439397900873995        0.066090236276767        0.032050872101884       -0.552600250157713
Se         -0.031915502207468        6.190007817226705        8.449225721707409        0.059144655094972        0.045698807997793       -0.598737945661144
Se          5.365197180965033        3.078458223382282        8.445096559952129       -0.039024735431085       -0.000680571310736       -0.666745197311106
Se          1.756065312291918        3.081572123278650        8.445110182816054        0.026456920455614        0.095569489848248       -0.554262211983401
Se          3.552211958225735        6.197724094151577       11.566898434390188        0.148120290830969       -0.108767739600418        0.530805513146590
Se         -0.014689032276512        6.194626685090488       11.501278532843907       -0.132859758312115        0.027882854905686        1.290501787677107
Se          5.344187139826817        3.099496944234028       11.497203145551493       -0.042717355440448       -0.043455776598149        1.259718984220688
Se          1.756152068425342        3.089474101348619       11.567692145462093        0.147220404322629        0.065504281604623        0.442740048336171
Mo          1.759250911472107        1.029628244411869       10.001624199354465       -0.065709712838955       -0.108282572217207       -0.121656171283288
Mo          5.368418629787134        1.007429429147892       10.016839504374227       -0.104170605094957        0.134171792841274       -0.621377290437951
Mo         -0.029580256533401        4.123193506895343       10.010932917373012        0.192920754983008       -0.070704340070671       -0.502528250839821
Mo          3.562890132565272        4.134451011448158        9.974804365248191       -0.255471351956829       -0.068987099502328        0.094140470073004
