# total energy = -9516.772012171938 eV 

 CRYSTAL
 PRIMVEC
        6.572434350304899        0.000000000000000        0.000000000000000
       -3.286217175152450        5.691892458222800        0.000000000000000
        0.000000000000000        0.000000000000000       20.000068893967864
 PRIMCOORD
12 1
Se          3.263289895164846        5.682010803177118        8.719438991893735       -0.068098268742519       -0.385340401736085      -10.927611377112598
Se         -0.030709699501800        5.679774861011143        8.730997274942181       -0.490148126478947       -0.269432448357640      -11.022980835045564
Se          4.896804043076496        2.828130331318029        8.657959783737549        0.196842203275920        0.656892468486511       -9.256078101411768
Se          1.631403081998332        2.829394210443592        8.695345104808952       -0.218554407838706        0.152454915586425      -10.276893415625452
Se          3.260968511352318        5.683459367707924       11.265821550239458       -0.590899934173507        0.093096087502469       10.887889101082335
Se         -0.029134286988032        5.672908638845380       11.287463919311577        0.093923211758848        0.419459984365426       10.357748218399761
Se          4.902359721832808        2.842891361625378       11.307962684806744        0.112248243504244       -0.533283543480127        9.648837424633035
Se          1.611854690510220        2.839283095167061       11.295268027859128        0.136040214343018       -0.151062148381946       10.692903492228334
Mo          1.599913891782586        0.945601105228897       10.000617421910805        0.849842276948217        0.189209880133046        0.287774963612341
Mo          4.892721904101522        0.943584682370223        9.960741805464071        0.262453185709389        0.578045441067522        0.522031362579849
Mo         -0.015863227547896        3.777955540103866       10.008528661138266       -0.754196939522838       -0.568039988646941       -0.587013195788773
Mo          3.257526527483063        3.773893775675378       10.009722872459717        0.470548341216880       -0.182000246538660       -0.326607637551502
