# total energy = -38121.89179791211 eV 

 CRYSTAL
 PRIMVEC
       13.277745107833699        0.000000000000000        0.000000000000000
       -6.638872553916849       11.498859207011680        0.000000000000000
        0.000000000000000        0.000000000000000       20.000015178772852
 PRIMCOORD
48 1
Mo          1.675211939245544        0.885087850015640       10.000007589386426       -0.374708628305700        0.454102529611328        0.000000000000000
Se          1.624229381354994        2.793102477560365        8.318220510763483       -0.000274079719397        0.328398411703098        0.051197371674178
Se          1.624229381354994        2.793102477560365       11.681798651332901       -0.000274079719397        0.328398411703098       -0.051197371674178
Mo          0.034920469633603        3.855193292059514       10.000007589386426       -1.664412602315555       -0.932296306603062        0.000000000000000
Se         -0.088127049829714        5.763019375623707        8.318796764901164        0.290031621864825       -0.171880894197167        0.048188151190291
Se         -0.088127049829714        5.763019375623707       11.681218413871688        0.290031621864825       -0.171880894197167       -0.048188151190291
Mo         -1.718485438326484        6.756045998944460       10.000007589386426        0.247645167549015       -0.438229817156373        0.000000000000000
Se         -1.680582787141662        8.680171842403031        8.341541542270882        0.072592559075598       -0.370466049084525       -0.064367082168512
Se         -1.680582787141662        8.680171842403031       11.658468325403927        0.072592559075598       -0.370466049084525        0.064367082168512
Mo         -3.407749215219649        9.538193009016350       10.000007589386426        1.933539603481222        1.080613029803279        0.000000000000000
Se         -3.280397050792372       11.464268025456750        8.343422998752663       -0.303087432438247        0.188279140372992       -0.140426004074234
Se         -3.280397050792372       11.464268025456750       11.656588196696658       -0.303087432438247        0.188279140372992        0.140426004074234
Mo          4.964667067750479        1.013949694061677       10.000007589386426        0.033696378859991       -0.939184295048323        0.000000000000000
Se          4.918945152471655        2.930994516054239        8.331826216175481        0.112925215268946       -0.285937138251880        0.004433098050512
Se          4.918945152471655        2.930994516054239       11.668187634822861        0.112925215268946       -0.285937138251880       -0.004433098050512
Mo          3.225595813408810        3.833869233416333       10.000007589386426        0.938366426767458       -0.284731290330705        0.000000000000000
Se          3.345724884497424        5.762286444093755        8.347051806490633       -0.312940675483703       -0.171083594750778       -0.098797254198446
Se          3.345724884497424        5.762286444093755       11.652968683380260       -0.312940675483703       -0.171083594750778        0.098797254198446
Mo          1.617024876859484        6.624880466122215       10.000007589386426        0.177428565965865        0.984008670470441        0.000000000000000
Se          1.675932920804899        8.542201465213019        8.330988390459176       -0.180807768359895        0.239110901014354        0.006377110018956
Se          1.675932920804899        8.542201465213019       11.669028116088187       -0.180807768359895        0.239110901014354       -0.006377110018956
Mo          0.042183396207588        9.545349713629474       10.000007589386426       -0.895034834507461        0.289286772946351        0.000000000000000
Se         -0.071370535503628       11.450098015877671        8.314027398858430        0.273218399453440        0.223839312746969        0.100395966858119
Se         -0.071370535503628       11.450098015877671       11.685987779914422        0.273218399453440        0.223839312746969       -0.100395966858119
Mo          8.218298839954480        0.900921561056732       10.000007589386426        0.732185715528852        0.617588254016979        0.000000000000000
Se          8.336049866894282        2.825258520662516        8.340904210505707       -0.344017356162702        0.102204224519020       -0.064039266369046
Se          8.336049866894282        2.825258520662516       11.659108312718125       -0.344017356162702        0.102204224519020        0.064039266369046
Mo          6.654366354683180        3.759803315655816       10.000007589386426       -0.535734577218413        0.767229095936611        0.000000000000000
Se          6.603383796792632        5.667817943200540        8.318220510763483        0.151985431939503        0.293649679849212        0.059983349320744
Se          6.603383796792632        5.667817943200540       11.681798651332901        0.151985431939503        0.293649679849212       -0.059983349320744
Mo          5.014074885071240        6.729908757699690       10.000007589386426       -0.848632058149715       -0.516515058283727        0.000000000000000
Se          4.891027365607923        8.637733513489371        8.318796764901164        0.321728452903285       -0.029495194418200        0.059091690346195
Se          4.891027365607923        8.637733513489371       11.681218413871688        0.321728452903285       -0.029495194418200       -0.059091690346195
Mo          3.260668977111153        9.630761464584635       10.000007589386426        0.477734320651618       -0.823974653600349        0.000000000000000
Se          3.298571628295975       11.554888635817717        8.341541542270882        0.000068391374634       -0.340525025179051       -0.076737950553872
Se          3.298571628295975       11.554888635817717       11.658468325403927        0.000068391374634       -0.340525025179051        0.076737950553872
Mo         11.663258935838833        0.936166007670966       10.000007589386426       -0.802486649333355        0.045294887510764        0.000000000000000
Se         11.538397676393785        2.840886426654436        8.314119015299674        0.858813631215500        0.461096704664574        0.467330861283920
Se         11.538397676393785        2.840886426654436       11.685898819022201        0.858813631215500        0.461096704664574       -0.467330861283920
Mo          9.943820155413606        3.888665159701852       10.000007589386426       -0.136313008510261       -0.737427425884714        0.000000000000000
Se          9.898099567909291        5.805709981694414        8.331826216175481        0.002904062317627       -0.129387739052510       -0.011415703134365
Se          9.898099567909291        5.805709981694414       11.668187634822861        0.002904062317627       -0.129387739052510        0.011415703134365
Mo          8.204750228846446        6.708583371281998       10.000007589386426        0.861322257690320       -0.130973596190636        0.000000000000000
Se          8.324879299935063        8.637000581959420        8.347051806490633       -1.056437450201521       -0.591028232278553       -0.751524533703500
Se          8.324879299935063        8.637000581959420       11.652968683380260       -1.056437450201521       -0.591028232278553        0.751524533703500
Mo          6.596179292297121        9.499595931762389       10.000007589386426        0.245257897197606        0.817861595993983        0.000000000000000
Se          6.655087336242536       11.416918258627705        8.330988390459176       -0.081629733613206        0.126899938522598        0.031427893527682
Se          6.655087336242536       11.416918258627705       11.669028116088187       -0.081629733613206        0.126899938522598       -0.031427893527682
