# total energy = -9528.962176948544 eV 

 CRYSTAL
 PRIMVEC
        6.904334320877699        0.000000000000000        0.000000000000000
       -3.452167160438850        5.979326130238110        0.000000000000000
        0.000000000000000        0.000000000000000       19.999950931310131
 PRIMCOORD
12 1
Se          3.479944678278605        5.970331853918302        8.341405918592343       -0.554478956076695        0.062187814155745        0.350485483274215
Se         -0.022457728245519        5.923468684715345        8.507928796343865        0.529035307829471        0.179907881851555       -1.235445959765599
Se          5.073275860776786        3.006532425165255        8.469156126098111        0.496813971511865        0.051038991648711       -1.025928469354069
Se          1.708063267641934        2.958436141852589        8.658419809802309       -0.995492764979440        1.464833715612559       -4.063393819634046
Se          3.434302195383578        6.022933215375341       11.729760459503915        0.152116815369720       -0.133777128329760       -0.793307806948292
Se         -0.041678014127978        6.021367312351366       11.666292366259244        0.075523875098906        0.126794523245907        0.268666259273396
Se          5.150779775262366        2.974716562181219       11.486947449240423       -0.941618102387735        0.129649220360791        3.420056727288300
Se          1.706310257157863        2.964320015560841       11.585575174580727       -0.291885902292867       -0.102788122307717        1.897867588069780
Mo          1.715423978461422        1.017423395957970        9.946308074978884       -0.529735162422528       -2.082356663580076        2.895105361544105
Mo          5.190708231073434        1.032662642671011       10.049326956947267       -0.206770008346353       -1.544831312210068       -0.784874327702564
Mo         -0.088176634478793        3.991589682693815       10.129363381261745        1.076223897636461        0.402669644782396       -1.287681543359970
Mo          3.374097090538957        3.987112912320158       10.055353059942529        1.190267286169626        1.446671434769957        0.358450250204313
