# total energy = -38122.641786303226 eV 

 CRYSTAL
 PRIMVEC
       13.277745107833699        0.000000000000000        0.000000000000000
       -6.638872553916849       11.498859207011680        0.000000000000000
        0.000000000000000        0.000000000000000       20.000015178772852
 PRIMCOORD
48 1
Mo          1.615049148387438        0.978175465417641       10.000007589386426        0.055416039625274       -0.080180145003486        0.000000000000000
Se          1.618072490948492        2.889674173278661        8.330514374958828       -0.014135417272998        0.018672902158477       -0.003162972521598
Se          1.618072490948492        2.889674173278661       11.669498148265003       -0.014135417272998        0.018672902158477        0.003162972521598
Mo         -0.044668990091774        3.852889603283305       10.000007589386426        0.055429409367684       -0.080135664898931        0.000000000000000
Se         -0.041645647530720        5.764388311144325        8.330514374958828       -0.014143901917219        0.018687043232179       -0.003160401417289
Se         -0.041645647530720        5.764388311144325       11.669498148265003       -0.014143901917219        0.018687043232179        0.003160401417289
Mo         -1.704387128570987        6.727605068923480       10.000007589386426        0.055411668747948       -0.080142863990998        0.000000000000000
Se         -1.701363786009933        8.639103776784500        8.330514374958828       -0.014141073702479        0.018685500569594       -0.003160401417289
Se         -1.701363786009933        8.639103776784500       11.669498148265003       -0.014141073702479        0.018685500569594        0.003160401417289
Mo         -3.364105267050199        9.602319206789144       10.000007589386426        0.055406783649760       -0.080143121101429        0.000000000000000
Se         -3.361081924489145       11.513817914650165        8.330514374958828       -0.014143901917219        0.018710440281396       -0.003146260343586
Se         -3.361081924489145       11.513817914650165       11.669498148265003       -0.014143901917219        0.018710440281396        0.003146260343586
Mo          4.939521674065264        0.969451986881794       10.000007589386426       -0.230217965428511        0.384550044271332        0.000000000000000
Se          4.926255878928028        2.909164575322450        8.330514374958828        0.183840385892999       -0.318408900129236        0.000651260721607
Se          4.926255878928028        2.909164575322450       11.669498148265003        0.183840385892999       -0.318408900129236       -0.000651260721607
Mo          3.279804863360563        3.844166124747459       10.000007589386426       -0.230230563839628        0.384614064768640        0.000000000000000
Se          3.266537740448816        5.783878713188114        8.330514374958828        0.183843214107740       -0.318405814804065        0.000653574715485
Se          3.266537740448816        5.783878713188114       11.669498148265003        0.183843214107740       -0.318405814804065       -0.000653574715485
Mo          1.620086724881350        6.718881590387634       10.000007589386426       -0.230232620723075        0.384604808793126        0.000000000000000
Se          1.606819601969603        8.658592851053777        8.330514374958828        0.183837557678259       -0.318396815938981        0.000653574715485
Se          1.606819601969603        8.658592851053777       11.669498148265003        0.183837557678259       -0.318396815938981       -0.000653574715485
Mo         -0.039632741372373        9.593597056027809       10.000007589386426       -0.230222593416268        0.384601209247092        0.000000000000000
Se         -0.052898536509609       11.533308316693953        8.330514374958828        0.183840900113861       -0.318369562233300        0.000672857997807
Se         -0.052898536509609       11.533308316693953       11.669498148265003        0.183840900113861       -0.318369562233300       -0.000672857997807
Mo          8.310888539914938        0.879507213746818       10.000007589386426       -0.067816475710193        0.052591167320381        0.000000000000000
Se          8.323813097002903        2.773853730477538        8.330514374958828       -0.178390930308926        0.324519643741724        0.009784337449961
Se          8.323813097002903        2.773853730477538       11.669498148265003       -0.178390930308926        0.324519643741724       -0.009784337449961
Mo          6.651169073661214        3.754222679386993       10.000007589386426       -0.067813647495453        0.052642589406572        0.000000000000000
Se          6.664096286298200        5.648569196117713        8.330514374958828       -0.178403785830474        0.324525814392067        0.009784851670823
Se          6.664096286298200        5.648569196117713       11.669498148265003       -0.178403785830474        0.324525814392067       -0.009784851670823
Mo          4.991450935182002        6.628938145027169       10.000007589386426       -0.067806705513817        0.052645931842174        0.000000000000000
Se          5.004378147818989        8.523284661757888        8.330514374958828       -0.178398643621855        0.324525557281636        0.009784337449961
Se          5.004378147818989        8.523284661757888       11.669498148265003       -0.178398643621855        0.324525557281636       -0.009784337449961
Mo          3.331732796702789        9.503652282892833       10.000007589386426       -0.067808762397265        0.052659044474153        0.000000000000000
Se          3.344660009339776       11.397997471849042        8.330514374958828       -0.178412527585126        0.324551268324731        0.009793850535906
Se          3.344660009339776       11.397997471849042       11.669498148265003       -0.178412527585126        0.324551268324731       -0.009793850535906
Mo         11.564238823922652        0.993966687674388       10.000007589386426        0.227000228385120       -0.394356750328786        0.000000000000000
Se         11.562668066676395        2.913430714825597        8.330514374958828        0.016505461225533       -0.006205874471941        0.004206326650410
Se         11.562668066676395        2.913430714825597       11.669498148265003        0.016505461225533       -0.006205874471941       -0.004206326650410
Mo          9.904523340992460        3.868682153314563       10.000007589386426        0.226962690262200       -0.394323068862331        0.000000000000000
Se          9.902947272648161        5.788144852691261        8.330514374958828        0.016542485127591       -0.006206902913664        0.004207355092134
Se          9.902947272648161        5.788144852691261       11.669498148265003        0.016542485127591       -0.006206902913664       -0.004207355092134
Mo          8.244805202513248        6.743396291180228       10.000007589386426        0.226947263636343       -0.394320240647590        0.000000000000000
Se          8.243229134168949        8.662858990556925        8.330514374958828        0.016539399802419       -0.006190704956514        0.004207097981703
Se          8.243229134168949        8.662858990556925       11.669498148265003        0.016539399802419       -0.006190704956514       -0.004207097981703
Mo          6.585087064034036        9.618111756820403       10.000007589386426        0.226950091851084       -0.394286816291566        0.000000000000000
Se          6.583510995689737       11.537578439520633        8.330514374958828        0.016533486262507       -0.006203560478062        0.004232294803936
Se          6.583510995689737       11.537578439520633       11.669498148265003        0.016533486262507       -0.006203560478062       -0.004232294803936
