# total energy = -9526.478772146695 eV 

 CRYSTAL
 PRIMVEC
        6.107710890233100        0.000000000000000        0.000000000000000
       -3.053855445116550        5.289430323714121        0.000000000000000
        0.000000000000000        0.000000000000000       20.000047449589029
 PRIMCOORD
12 1
Se          2.959500473428784        5.300811432186981        8.332997329836072        1.027370087540429        0.751147095590859       -0.907617304777495
Se         -0.054161958632409        5.267956833766238        8.208329789000079        0.149941404013417        0.376162330682315        1.371242433420073
Se          4.546035178878111        2.677153825166177        8.349402641287238        1.178018031018108       -1.285805922766160       -1.418244277081941
Se          1.505555009840082        2.678579364887957        8.198287490754359       -0.146849136860331       -0.797811610367316        0.786328801410472
Se          3.014835723323206        5.269218686836161       11.819531565211980        0.397156682921877       -0.894831717267007        1.655781662258855
Se         -0.090973132167844        5.318583649335380       11.644097342227461        1.623951905127592       -1.637273053665758        4.710539488793516
Se          4.491336352458450        2.650496110214666       11.663943737994183        0.719510942614104        0.570369409151386        2.957651587640600
Se          1.478999904431527        2.626616182176032       11.918542444911372        0.279420674379347        0.601357386731705       -0.469076126889237
Mo          1.490736481678199        0.875732749007957       10.174089209768535       -1.433740065645118        1.719331390367364       -5.110426170271263
Mo          4.615142706058920        0.840982317126887       10.173450343209415       -1.581253061638173        0.454099701396588       -4.656972587387664
Mo          0.006050909178954        3.501616005877161       10.066941026850085        0.476992042837453        0.155605546807337       -1.464247503829984
Mo          3.065949323450301        3.526762673154429        9.932782714061759       -2.690519249198276       -0.012350556661314        2.545039739603637
