# total energy = -9521.101625573887 eV 

 CRYSTAL
 PRIMVEC
        6.506022605555400        0.000000000000000        0.000000000000000
       -3.253011302777700        5.634378226976116        0.000000000000000
        0.000000000000000        0.000000000000000       19.999994935150113
 PRIMCOORD
12 1
Se          3.220816249914109        5.627195578019583        7.816689485944000        0.018521464114645        0.006115114489814        3.836194844885799
Se         -0.023203729622713        5.628587866857171        7.817291293035015        0.000453285689772        0.002499370499305        3.843854421734354
Se          4.846116335314150        2.813053234917706        7.831074301924883        0.026645639511935       -0.025016587821409        3.832083134873979
Se          1.589260623778827        2.813936752787541        7.813014884376383        0.038380930911975       -0.023612250647537        3.808530533846424
Se          3.230503066971520        5.617741025969189       12.131035412990819       -0.019004317503977        0.007833126389449       -3.789955847872571
Se         -0.038038762367901        5.625835819295022       12.134890231384610        0.066429107824765       -0.056747614547186       -3.803788389057905
Se          4.849213852676655        2.805540730615071       12.202128673808504        0.051954047672476        0.013403938096933       -3.806205484219306
Se          1.613224256841869        2.791937938551376       12.180336100488935       -0.052400648491044        0.067819818145796       -3.823411314258758
Mo          1.598651416807686        0.931941545485312       10.009386308797133       -0.002923859820811       -0.003988554115392        0.028380620700013
Mo          4.864091825171039        0.930972798719344        9.976944677676791       -0.053072220936696        0.006305376208720       -0.054719784578250
Mo         -0.016155755334115        3.736333312508242       10.009001152258884       -0.052192646152402        0.022898512091209       -0.047807113531617
Mo          3.229677452702876        3.744904346688800       10.009573031645912       -0.022790782820639       -0.017510248789702       -0.023155365411732
