# total energy = -9512.72209777192 eV 

 CRYSTAL
 PRIMVEC
        8.630457589390799        0.000000000000000        0.000000000000000
       -4.315228794695400        7.474192033852167        0.000000000000000
        0.000000000000000        0.000000000000000       20.000041178044860
 PRIMCOORD
12 1
Se          4.276347720209436        7.466233888908990        8.367268333019291        0.001327975375878       -0.059689986319025        1.660706869674213
Se         -0.027136747798321        7.446771343999155        8.369924787865305        0.003716531279442       -0.008327035527312        1.704684837557630
Se          6.444411012560610        3.731385243139183        8.332645526307932       -0.018223987346031        0.029371010080049        1.740846391229609
Se          2.122315825807091        3.705522350881056        8.331548595148321        0.018012128350925        0.041403264027842        1.783338517932541
Se          4.271348959173660        7.449186146032666       11.652722147743447       -0.014598987380008        0.038507172133574       -1.654385038397912
Se         -0.032246841737000        7.451866766159931       11.675447005622072        0.012664231387078        0.034192601991732       -1.712163922883655
Se          6.437920908453388        3.731714063573340       11.636103338609315        0.034362551986593       -0.052692468830177       -1.655365914692003
Se          2.142946934674530        3.716619393249495       11.660362691847334       -0.030320518901562       -0.020602258832357       -1.753046281178384
Mo          2.134755767376439        1.227094857929004       10.020210681507052       -0.006551173780712        0.012712825258529        0.002302166798764
Mo          6.438334307371920        1.229056560939072       10.027117636715840        0.023310145891166       -0.038078826155604        0.012244370053330
Mo         -0.019053461220098        4.957492776719961       10.004359983098375       -0.044651340102085        0.033202469722128       -0.070020169213902
Mo          4.277726867332220        4.975127390712363        9.979115894649409        0.020952443239317       -0.009998510438945       -0.059141826880231
