# total energy = -9522.569314129805 eV 

 CRYSTAL
 PRIMVEC
        6.638793177329500        0.000000000000000        0.000000000000000
       -3.319396588664750        5.749360861396781        0.000000000000000
        0.000000000000000        0.000000000000000       19.999981854470612
 PRIMCOORD
12 1
Se          3.328429994541142        5.739375452578759        8.494259524271556       -1.190914176013907        0.099579127018978       -5.909877373856775
Se         -0.058756639015955        5.758787947708589        8.770346352257841        3.810013803922598       -0.859906607657486      -11.129763939229447
Se          5.047020359270290        2.804872856559453        8.713255386450077       -0.932382438597431       -0.630459459300976       -8.683688318493944
Se          1.598335265115001        2.887644666015079        8.478457204871559        1.202614757505769       -0.466878604035872       -6.579872704125571
Se          3.243448794716100        5.773099858040275       11.299482909110772        3.481119426198189       -1.939577327731318        7.152723228935665
Se          0.003611503488467        5.735281308826300       11.468060456504064       -1.084512880819992       -0.513428961780984        4.680458082592740
Se          4.945581591158648        2.858352318878748       11.472791924401548        0.199258269995597        0.959752358193363        3.948471627647879
Se          1.625870323697292        2.828223483802074       11.367115614604815        1.022110636564831       -0.217808016257647        4.590674605882686
Mo          1.669746107806263        0.929060600166835        9.860509882579612       -3.337624809130517        2.134328708982720        5.141898801013932
Mo          4.989433475612180        0.913246330939118       10.068711730931113       -1.617745002213928        1.207738197063393       -0.941755913578727
Mo          0.050446861595891        3.800489349966969        9.917965982012129       -1.255383588133939        0.350407578813636        5.227489320815986
Mo          3.304616643414061        3.813162806142492        9.883817357666581       -0.296553999277270       -0.123747250418238        2.503242582395575
