# total energy = -9324.243187242426 eV 

 CRYSTAL
 PRIMVEC
        3.850505334623600        0.000000000000000        0.000000000000000
       -1.925252667311800        3.334633882417403        0.000000000000000
        0.000000000000000        0.000000000000000       20.000006021201802
 PRIMCOORD
12 1
Se          1.911033521212102        3.321898336023136        7.917105264182143        0.948649558453470        0.425903171765138      -10.285431538816578
Se         -0.006718746758385        3.325671061150000        7.904563398206208       -1.210177403721855        0.036755221657052      -10.978185770212576
Se          2.869939496613688        1.654924089789215        7.887724753327366        0.362872035395863        0.451504942927398      -11.854342014216796
Se          0.947299782221964        1.659050676356332        7.925107384368559       -0.078759095651603       -0.919161563127337      -10.122800449483417
Se          1.905975497404540        3.332228856785397       12.091355311582893        0.811542592932423       -1.164590438761527       12.004030935787014
Se         -0.009259310178169        3.328238578107126       12.076154286622867       -0.681664030067221       -0.902461983526433       11.004848893233815
Se          2.874837724449863        1.661491126637416       12.115449463663767       -0.126930277553450        1.146931837253164       12.766550282849408
Se          0.949399077730401        1.653349618157888       12.113374041288406        0.013417564949774        0.884751702821449       12.708378533625167
Mo          0.943809684186661        0.549522558527606       10.037851167737051        1.000957647189370       -0.382531470277911       -0.834675589736661
Mo          2.877409862013392        0.546990081169024       10.038910826805139       -0.891371525087226        0.638390544764619       -0.900166501598875
Mo         -0.012846440947905        2.215552275802943        9.992840685627968       -0.743802736130654        0.230665337578371       -2.813061680137063
Mo          1.910300770046923        2.214522650676465       10.033743833696608        0.595265926401539       -0.446157045963552       -0.695145101293441
