# total energy = -38122.8494042216 eV 

 CRYSTAL
 PRIMVEC
       53.110927513609894        0.000000000000000        0.000000000000000
       -1.659716484800309        2.874735173529163        0.000000000000000
        0.000000000000000        0.000000000000000       19.999981973800079
 PRIMCOORD
48 1
Mo          1.634849948538437        0.943876781586372       10.024119281269472        0.028744174849382        0.025144885926455        0.192276950463898
Se          1.618858248264089        2.832517297248594        8.330507402529976        0.060242259524715        0.187952867236111        0.206142916005256
Se          1.651070025801094        2.888310326601641       11.669490504548355       -0.059357285421371       -0.191694595337787        0.220821350508429
Mo          4.954282918139056        0.943876781586372        9.999996297992791        0.005580324793429        0.004081628091397       -0.401569469248343
Se          4.939257836745455        2.833128072915001        8.306968639455944        0.022834491593901        0.154669664838664        0.190386160354661
Se          4.969536376520964        2.887699550935235       11.645957052567075       -0.025755008979109       -0.159687946230027        0.203510619413148
Mo          8.273715887739673        0.943876781586372        9.975878625808861        0.001529807064177        0.003765125150893       -0.383570453529397
Se          8.260608110829315        2.835454331540097        8.284911671259543        0.016387190427294        0.141095776746870        0.170967895056848
Se          8.287052041638342        2.885373292310139       11.623900084370671       -0.017949907626634       -0.145266365047377        0.181998446765644
Mo         11.593148857340292        0.943876781586372        9.953274615059067        0.002004432919719        0.004390160608542       -0.332053236479112
Se         11.582786915382387        2.839347362526845        8.265717382056124        0.006760975892371        0.118351016693372        0.139387535043611
Se         11.603739176286505        2.881480261323391       11.604700484074502       -0.007628980707272       -0.120867870701982        0.147675489785418
Mo         14.912587138033661        0.943876781586372        9.933607638600778        0.003021561784573        0.002071024521336       -0.259147002677749
Se         14.905629606529379        2.844562855608681        8.250596700992999       -0.003168628951079        0.088209960872616        0.098887757070142
Se         14.919757113248000        2.876264768241555       11.589579803011379        0.003033388864397       -0.089273369615042        0.103921722197794
Mo         18.232020107634280        0.943876781586372        9.918109869952307        0.000163779344518       -0.000266109296038       -0.170682245368058
Se         18.228918429467488        2.850776834127773        8.240495002579911       -0.012923141591049        0.052406047810094        0.051636773400679
Se         18.235350162789384        2.870050789722462       11.579478104598289        0.012958365720090       -0.052327372018222        0.054320234968548
Mo         21.551447766142150        0.943876781586372        9.907758550179905       -0.000525019500008        0.000300562093785       -0.069246266816730
Se         21.552398451744640        2.857596277220521        8.236049617947023       -0.022297387903638        0.013096948242374        0.000426289094522
Se         21.550725457527964        2.863231346629715       11.575027408872650        0.021802707434482       -0.012341043575369        0.002165126939065
Mo         24.870886046835516        0.943876781586372        9.903201632599236        0.002701202187604       -0.000437859063915        0.035503350968736
Se         24.875835985279785        2.864590986374063        8.237536723917403       -0.030623909210088       -0.027652998180413       -0.051927308187657
Se         24.866159174286807        2.856236637476172       11.576519825935780        0.029080475293070        0.028024522753142       -0.049279070748829
Mo         28.190319016436138        0.943876781586372        9.904731227311629        0.000916598686352       -0.001198905939539        0.137344792669680
Se         28.198965475435354        2.871325451982789        8.244871343007032       -0.036765763184721       -0.066849226268944       -0.101682804565045
Se         28.181895623332480        2.849502171867447       11.583849133932658        0.034416545177093        0.066294381958945       -0.096822131867856
Mo         31.509757297129504        0.943876781586372        9.912241112462052        0.000054507411362        0.001905959624663        0.232512933135208
Se         31.521558545223030        2.877374786626589        8.257580787961039       -0.041065935142430       -0.102146117561624       -0.145854376602970
Se         31.498168492746036        2.843458148316398       11.596569201072167        0.037611913612991        0.100185393415168       -0.137697291070518
Mo         34.829184955637373        0.943876781586372        9.925269222981141        0.003703675757895        0.003719616604614        0.312526213469005
Se         34.843413373118267        2.882356591627366        8.274873705959470       -0.042677503323650       -0.131036845356650       -0.180885672820474
Se         34.815174292959284        2.838476343315621       11.613856807977848        0.038235663518486        0.127624475717027       -0.169696998196642
Mo         38.148612614145236        0.943876781586372        9.942992339492433        0.003769238917788        0.004018121814952        0.373824939754510
Se         38.164386559616780        2.885957512512789        8.295666634081050       -0.041265195726419       -0.151685641177010       -0.204387365982701
Se         38.133077667847509        2.834870111337447       11.634649736099428        0.036747251233693        0.146904672713417       -0.191233853445517
Mo         41.468056205931362        0.943876781586372        9.964295132518142        0.001724696770841        0.005540215566200        0.411227051255843
Se         41.484377193956291        2.887954483387300        8.318642421323437       -0.037299524439382       -0.162711564898048       -0.214617275809505
Se         41.451952972709236        2.832873140462935       11.657630834434565        0.033154904292401        0.157218914761575       -0.200798104366581
Mo         44.787483864439231        0.943876781586372        9.987844517777678        0.005008254084556        0.006404106614206        0.419973948116904
Se         44.803342787394790        2.888225349117620        8.342372383736517       -0.031266171066612       -0.163607594749924       -0.211169682040841
Se         44.771853318471969        2.832602274732616       11.681350174662144        0.027803664892952        0.158153254067662       -0.197685525489450
Mo         48.106922145132593        0.943876781586372       10.012158700393407        0.005086415655566        0.003584890738794        0.401443228026744
Se         48.121325828674287        2.886743554239990        8.365348170978905       -0.023453356401208       -0.154845785483868       -0.194079294584887
Se         48.092736216393710        2.834084069610246       11.704325961904532        0.021274859719733        0.150108782903968       -0.182021072483568
Mo         51.426355114733212        0.943876781586372       10.035697463467439        0.001793859476767        0.003270444681737        0.363080037734505
Se         51.438405984186055        2.883610009516687        8.386141099100483       -0.189644653871790       -0.248905008660690       -0.269287438074582
Se         51.414522000083181        2.837217614333549       11.725118890026110        0.155519929033829        0.224308796393892       -0.236567821741786
