# total energy = -38121.928648265035 eV 

 CRYSTAL
 PRIMVEC
       13.277745107833699        0.000000000000000        0.000000000000000
       -6.638872553916849       11.498859207011680        0.000000000000000
        0.000000000000000        0.000000000000000       20.000015178772852
 PRIMCOORD
48 1
Mo          1.634851577441262        0.943875066480574       10.008537212843699        0.113509113057643        0.065534363525044       -0.122076546837898
Se          1.663559390138909        2.876926210200629        8.397090316704016       -0.456375642931394       -0.263523022212589       -0.764240187176769
Se          1.606369486410447        2.843907113666468       11.736078073333726        0.342867301205044        0.197918724650325       -0.629016041341599
Mo         -0.024865233263440        3.818589204346238       10.008537212843699        0.113524282573070        0.065548247488316       -0.122079117942207
Se          0.003841251659696        5.751641675840804        8.397090316704016       -0.456404696410092       -0.263503481819837       -0.764251757146162
Se         -0.053348652068765        5.718622579306643       11.736078073333726        0.342840047499362        0.197941350368249       -0.629009356470394
Mo         -1.684584699517163        6.693304669986414       10.008537212843699        0.113542794524098        0.065553903917797       -0.122078346610915
Se         -1.655876886819516        8.626355813706470        8.397090316704016       -0.456402896637075       -0.263506310034577       -0.764251757146162
Se         -1.713066790547977        8.593336717172308       11.736078073333726        0.342842104382810        0.197937493711785       -0.629009356470394
Mo         -3.344301510221865        9.568020135626588       10.008537212843699        0.113528653450396        0.065540791285818       -0.122079117942207
Se         -3.315595025298729       11.501068623797622        8.397090316704016       -0.456405467741385       -0.263471343015968       -0.764240187176769
Se         -3.372784929027190       11.468048199488951       11.736078073333726        0.342836190842898        0.197972460730395       -0.629016041341599
Mo          4.954287854399686        0.943875066480574        9.991473982605621        0.113574161996675        0.065535134856337        0.122251639041378
Se          4.925805763368872        2.843907113666468        8.263938433213637        0.342840561720224        0.197939036374371        0.628952535065153
Se          4.982995667097334        2.876926210200629       11.602928845392368       -0.456401611084920       -0.263503481819837        0.764136314562664
Mo          3.294569715920474        3.818589204346238        9.991473982605621        0.113542280303236        0.065590413598992        0.122251639041378
Se          3.266087624889660        5.718622579306643        8.263938433213637        0.342870386530215        0.197924123969376        0.628960762598944
Se          3.323277528618121        5.751641675840804       11.602928845392368       -0.456367929618465       -0.263515308899661        0.764121916378530
Mo          1.634851577441262        6.693304669986414        9.991473982605621        0.113563363358575        0.065576786746152        0.122254724366549
Se          1.606369486410447        8.593336717172308        8.263938433213637        0.342843647045396        0.197940836147388        0.628951763733861
Se          1.663559390138909        8.626355813706470       11.602928845392368       -0.456400068422335       -0.263502710488544        0.764136828783525
Mo         -0.024865233263440        9.568020135626588        9.991473982605621        0.113572876444520        0.065560331678571        0.122254724366549
Se         -0.053348652068765       11.468048199488951        8.263938433213637        0.342842618603672        0.197972460730395        0.628960762598944
Se          0.003841251659696       11.501068623797622       11.602928845392368       -0.456394926213716       -0.263468514801227        0.764121916378530
Mo          8.273725459132622        0.943875066480574       10.008537212843699        0.113541508971943        0.065511737807120       -0.122078860831776
Se          8.302430616281248        2.876926210200629        8.397090316704016       -0.456401353974489       -0.263508881138887       -0.764251242925300
Se          8.245242040327296        2.843907113666468       11.736078073333726        0.342839790388931        0.197935179717907       -0.629010384912118
Mo          6.614007320653410        3.818589204346238       10.008537212843699        0.113540480530220        0.065552618365642       -0.122080146383931
Se          6.642713805576546        5.751641675840804        8.397090316704016       -0.456405981962247       -0.263500910715527       -0.764251242925300
Se          6.585523901848084        5.718622579306643       11.736078073333726        0.342836962174191        0.197940321926526       -0.629010384912118
Mo          4.954287854399686        6.693304669986414       10.008537212843699        0.113505513511610        0.065573958531411       -0.122078860831776
Se          4.982995667097334        8.626355813706470        8.397090316704016       -0.456382327802599       -0.263527135979485       -0.764244558054095
Se          4.925805763368872        8.593336717172308       11.736078073333726        0.342863958769441        0.197918210429464       -0.629014755789444
Mo          3.294569715920474        9.568020135626588       10.008537212843699        0.113534824100739        0.065549533040471       -0.122081174825655
Se          3.323277528618121       11.501068623797622        8.397090316704016       -0.456412409723020       -0.263474942562001       -0.764244558054095
Se          3.266087624889660       11.468048199488951       11.736078073333726        0.342834133959451        0.197969632515654       -0.629014755789444
Mo         11.593157752767514        0.943875066480574        9.991473982605621        0.113594987941582        0.065536420408492        0.122255495697842
Se         11.564678317285722        2.843907113666468        8.263938433213637        0.342841847272379        0.197938265043078        0.628953306396446
Se         11.621868221014184        2.876926210200629       11.602928845392368       -0.456397754428456       -0.263499110942511        0.764133743458354
Mo          9.933443597611834        3.818589204346238        9.991473982605621        0.113573647775813        0.065570101874947        0.122252667483101
Se          9.904960178806508        5.718622579306643        8.263938433213637        0.342842104382810        0.197940064816095        0.628953563506877
Se          9.962148754760459        5.751641675840804       11.602928845392368       -0.456393126440699       -0.263498596721649        0.764135029010509
Mo          8.273725459132622        6.693304669986414        9.991473982605621        0.113572362223658        0.065572672979257        0.122252667483101
Se          8.245242040327296        8.593336717172308        8.263938433213637        0.342840304609793        0.197940579036957        0.628953306396446
Se          8.302430616281248        8.626355813706470       11.602928845392368       -0.456395697545008       -0.263502710488544        0.764133743458354
Mo          6.614007320653410        9.568020135626588        9.991473982605621        0.113553593162198        0.065607897108297        0.122255495697842
Se          6.585523901848084       11.468048199488951        8.263938433213637        0.342861901885994        0.197951377675057        0.628973875230923
Se          6.642713805576546       11.501068623797622       11.602928845392368       -0.456375900041825       -0.263488826525272        0.764101347544054
