# total energy = -9518.443432314638 eV 

 CRYSTAL
 PRIMVEC
        8.099322384569499        0.000000000000000        0.000000000000000
       -4.049661192284749        7.014215668096800        0.000000000000000
        0.000000000000000        0.000000000000000       19.999964538468078
 PRIMCOORD
12 1
Se          4.071471047601919        6.930802366722596        8.414926250132304       -0.228137427821230        0.269714755610827        0.786855363573066
Se         -0.069805629835889        6.975401285433228        8.130886253834406        0.049157714625419        0.207572450001361        2.523225205089332
Se          6.008105692502000        3.531473835510139        8.263460012286231       -0.043852755103542       -0.086398874996975        1.812915473467784
Se          2.018991794635339        3.428569514817468        8.224037370511576       -0.047990690379318        0.096728800781420        2.254846138167311
Se          4.068721327652357        7.015048278437934       11.594535553763921       -0.206421109491549       -0.018263325241967       -1.597299837854884
Se         -0.031069000667209        7.057338080336725       11.669417838870459        0.038325909279751       -0.200866238630784       -2.128809319361427
Se          6.095773567924819        3.448224950380342       11.499372565406421       -0.101810845559660        0.029029567427742       -1.036394920777351
Se          2.004885204838134        3.488596022806228       11.773900717495881       -0.244006283619721        0.133577867745770       -2.445534146167913
Mo          1.982422544136769        1.178013233613857        9.877900372999184        0.194628225354974       -0.192357168918356        0.300764953915438
Mo          5.996615993767250        1.139404573738853        9.936755718971135        0.223933672275129        0.057725662626535       -0.049645710223370
Mo         -0.024334414104439        4.610902926991255       10.114804742815604        0.021313169173945        0.138090412919447       -0.612449902054361
Mo          3.983054794790765        4.722279948830423        9.897532320527143        0.344860421265800       -0.434553395104159        0.191526702226374
