# total energy = -38122.8675245624 eV 

 CRYSTAL
 PRIMVEC
       53.110927513609894        0.000000000000000        0.000000000000000
       -1.659716484800309        2.874735173529163        0.000000000000000
        0.000000000000000        0.000000000000000       19.999981973800079
 PRIMCOORD
48 1
Mo          1.555507533925855        0.898068606605884        9.999996297992791        0.346000448916651        0.199763491992422        0.000000000000000
Se          1.567733669439488        2.821603001644548        8.336376160020231        0.002560048561011        0.001478127867555       -0.039064587547882
Se          1.567733669439488        2.821603001644548       11.663616435965348        0.002560048561011        0.001478127867555        0.039064587547882
Mo          4.888855566535040        0.906098978845942        9.999996297992791        0.167735502718893        0.096842186481471        0.000000000000000
Se          4.907115103414219        2.833117450729498        8.338585574604798       -0.073330723122867       -0.042337603333929       -0.051119981434461
Se          4.907115103414219        2.833117450729498       11.661407021380784       -0.073330723122867       -0.042337603333929        0.051119981434461
Mo          8.228608777002364        0.917831182733698        9.999996297992791        0.199775576182676        0.115340510657330        0.000000000000000
Se          8.251127810268136        2.847308690561135        8.340003636369410       -0.094182893294112       -0.054376542152927       -0.059726753110652
Se          8.251127810268136        2.847308690561135       11.659988959616170       -0.094182893294112       -0.054376542152927        0.059726753110652
Mo         11.572780816638822        0.932112711142108        9.999996297992791        0.211238073415475        0.121958533150090        0.000000000000000
Se         11.597360553892122        2.862779903745849        8.340492256902534       -0.107429222696870       -0.062024291921658       -0.060732054895683
Se         11.597360553892122        2.862779903745849       11.659510961268548       -0.107429222696870       -0.062024291921658        0.060732054895683
Mo         14.918939204964291        0.947541435584811        9.999996297992791        0.212143873463726        0.122481238656220        0.000000000000000
Se         14.943189654467004        2.878017428849504        8.340003636369410       -0.110090058546815       -0.063560526746609       -0.055834615406868
Se         14.943189654467004        2.878017428849504       11.659988959616170       -0.110090058546815       -0.063560526746609        0.055834615406868
Mo         18.264476195437847        0.962614316813174        9.999996297992791        0.187482869368327        0.108243234321271        0.000000000000000
Se         18.286039232008374        2.891534159901718        8.338585574604798       -0.102322238206828       -0.059075749499476       -0.045089713386862
Se         18.286039232008374        2.891534159901718       11.661407021380784       -0.102322238206828       -0.059075749499476        0.045089713386862
Mo         21.606837152446090        0.975854871042317        9.999996297992791        0.146479412060619        0.084570048501598        0.000000000000000
Se         21.623609583354892        2.902007634807402        8.336376160020231       -0.084510655992047       -0.048792360703033       -0.030057752041127
Se         21.623609583354892        2.902007634807402       11.663616435965348       -0.084510655992047       -0.048792360703033        0.030057752041127
Mo         24.943775483755196        0.985961880548157        9.999996297992791        0.091613588757587        0.052893272076752        0.000000000000000
Se         24.954126803527600        2.908407501572791        8.333593147418517       -0.058643032644180       -0.033857587100199       -0.011953321045490
Se         24.954126803527600        2.908407501572791       11.666410070752566       -0.058643032644180       -0.033857587100199        0.011953321045490
Mo         28.273586328591975        0.991947482078941        9.999996297992791        0.024619866426447        0.014214350175301        0.000000000000000
Se         28.276507429605218        2.910107051253227        8.330507402529976       -0.027022820514144       -0.015601718060729        0.006954837157310
Se         28.276507429605218        2.910107051253227       11.669490504548355       -0.027022820514144       -0.015601718060729       -0.006954837157310
Mo         31.595234023869907        0.993232766524770        9.999996297992791       -0.044240991854283       -0.025542635763141        0.000000000000000
Se         31.590454040393688        2.906946951066167        8.327421657641436        0.007416607491304        0.004281917117111        0.025062610588550
Se         31.590454040393688        2.906946951066167       11.672576249436895        0.007416607491304        0.004281917117111       -0.025062610588550
Mo         34.908527370249949        0.989679645474109        9.999996297992791       -0.107201422855045       -0.061892651381010        0.000000000000000
Se         34.896524300631881        2.899229933298440        8.324638645039723        0.041207602989885        0.023791199507481        0.040396676690656
Se         34.896524300631881        2.899229933298440       11.675359262038608        0.041207602989885        0.023791199507481       -0.040396676690656
Mo         38.214045276842008        0.981649273234052        9.999996297992791       -0.161323682791758       -0.093140310496593        0.000000000000000
Se         38.196014116951140        2.887710173120738        8.322429230455157        0.071132428938209        0.041068249136308        0.051609262584567
Se         38.196014116951140        2.887710173120738       11.677568676623174        0.071132428938209        0.041068249136308       -0.051609262584567
Mo         41.513163316668674        0.969917069346295        9.999996297992791       -0.199619253040656       -0.115250264896065        0.000000000000000
Se         41.490867349298455        2.873524244381852        8.321011168690543        0.094406065148180        0.054505354478835        0.057596593190197
Se         41.490867349298455        2.873524244381852       11.678986738387788        0.094406065148180        0.054505354478835       -0.057596593190197
Mo         44.807862527326201        0.955640852030637        9.999996297992791       -0.217060596234863       -0.125319994924385        0.000000000000000
Se         44.783505855968457        2.858053031197138        8.320522548157419        0.107907962319307        0.062300685634934        0.057976602407147
Se         44.783505855968457        2.858053031197138       11.679480670013666        0.107907962319307        0.062300685634934       -0.057976602407147
Mo         48.100564767109219        0.940206816495182        9.999996297992791       -0.215136895990464       -0.124209277862663        0.000000000000000
Se         48.076542694594814        2.842810195000732        8.321011168690543        0.109859173379818        0.063427086432944        0.054372428386031
Se         48.076542694594814        2.842810195000732       11.678986738387788        0.109859173379818        0.063427086432944       -0.054372428386031
Mo         51.393893715836903        0.925133935266819        9.999996297992791       -0.211794974608922       -0.122279921188783        0.000000000000000
Se         51.372564367347437        2.829293463948518        8.322429230455157        0.007686059222944        0.004437726038269       -0.055823302547906
Se         51.372564367347437        2.829293463948518       11.677568676623174        0.007686059222944        0.004437726038269        0.055823302547906
