# total energy = -38122.12503672052 eV 

 CRYSTAL
 PRIMVEC
       13.277745107833699        0.000000000000000        0.000000000000000
       -6.638872553916849       11.498859207011680        0.000000000000000
        0.000000000000000        0.000000000000000       20.000015178772852
 PRIMCOORD
48 1
Mo          1.597384436295976        0.993375828017089       10.000007589386426        0.211570774313130        0.031673433989243        0.000000000000000
Se          1.626710991915649        2.873558974041283        8.272829211337843        0.086041234387517       -0.012193205077570        0.454703396688468
Se          1.626710991915649        2.873558974041283       11.727188622984031        0.086041234387517       -0.012193205077570       -0.454703396688468
Mo          0.019981678612779        3.857615152767184       10.000007589386426       -0.902641189496808       -0.549174767886110        0.000000000000000
Se         -0.020260511260043        5.725702272998141        8.248116672143142        0.059202762052367        0.078905648597246        0.652431345399026
Se         -0.020260511260043        5.725702272998141       11.751898506629709        0.059202762052367        0.078905648597246       -0.652431345399026
Mo         -1.642271181407519        6.648018264747126       10.000007589386426       -0.264133402375675       -0.032273529735090        0.000000000000000
Se         -1.675733754628281        8.595685550281884        8.379299466034029       -0.050644841358058       -0.002134530797781       -0.431712581952547
Se         -1.675733754628281        8.595685550281884       11.620718368287845       -0.050644841358058       -0.002134530797781        0.431712581952547
Mo         -3.384578222231968        9.524102665907918       10.000007589386426        1.346616653453714        0.821358554965391        0.000000000000000
Se         -3.347740446204794       11.492458006095193        8.418180687033297       -0.062928035086462       -0.063902997840640       -0.810027955383672
Se         -3.347740446204794       11.492458006095193       11.581838475063085       -0.062928035086462       -0.063902997840640        0.810027955383672
Mo          5.013772152482781        0.932976693296064       10.000007589386426        0.005584952781186        0.195438123212480        0.000000000000000
Se          4.963793392122384        2.843892508146850        8.317786328498457       -0.032430367097972        0.058688026969597        0.080441626311767
Se          4.963793392122384        2.843892508146850       11.682228850274395       -0.032430367097972        0.058688026969597       -0.080441626311767
Mo          3.289488322867706        3.757617798811066       10.000007589386426       -0.039519930121102        0.033053345672174        0.000000000000000
Se          3.297271737049918        5.732574833865955        8.426997109784899       -0.037478987520188       -0.011125682568248       -0.733509062916973
Se          3.297271737049918        5.732574833865955       11.573018068987952       -0.037478987520188       -0.011125682568248        0.733509062916973
Mo          1.574821564034234        6.697617281597439       10.000007589386426        0.027612374732322       -0.006750434364702        0.000000000000000
Se          1.625850594032661        8.626094242127843        8.353665451328846        0.023003413147038       -0.052418646221211       -0.174902198871309
Se          1.625850594032661        8.626094242127843       11.646348399669497        0.023003413147038       -0.052418646221211        0.174902198871309
Mo         -0.026267363146827        9.629457590015045       10.000007589386426        0.078580661012520       -0.123162067077386        0.000000000000000
Se         -0.028328069187563       11.488867703818034        8.236533167311070        0.040397448021949       -0.014936316265420        0.624631022941676
Se         -0.028328069187563       11.488867703818034       11.763478028138250        0.040397448021949       -0.014936316265420       -0.624631022941676
Mo          8.224831490547535        0.910197393789065       10.000007589386426        0.122991602861664       -0.070692512990847        0.000000000000000
Se          8.268451538775789        2.871265907461160        8.406680831995404        0.016774398736311       -0.057499919668158       -0.567158871200061
Se          8.268451538775789        2.871265907461160       11.593338330100980        0.016774398736311       -0.057499919668158        0.567158871200061
Mo          6.576538851733614        3.868091293657264       10.000007589386426        0.007139185336304       -0.143865627419539        0.000000000000000
Se          6.605865407353286        5.748273111906947        8.272829211337843        0.047220387528179       -0.060190066107231        0.405798421616677
Se          6.605865407353286        5.748273111906947       11.727188622984031        0.047220387528179       -0.060190066107231       -0.405798421616677
Mo          4.999136094050415        6.732329290632848       10.000007589386426        0.132548397580230        0.023401934315017        0.000000000000000
Se          4.958893904177593        8.600417738638315        8.248116672143142       -0.016299001549477        0.051052104280689        0.574936975957287
Se          4.958893904177593        8.600417738638315       11.751898506629709       -0.016299001549477        0.051052104280689       -0.574936975957287
Mo          3.336883234030118        9.522733730387300       10.000007589386426       -0.123131985156965        0.101824472412500        0.000000000000000
Se          3.303420660809356       11.470398360373038        8.379299466034029       -0.050982684464332        0.115021179502085       -0.286702298894400
Se          3.303420660809356       11.470398360373038       11.620718368287845       -0.050982684464332        0.115021179502085        0.286702298894400
Mo         11.604668230001495        1.003670063799192       10.000007589386426       -0.110497835690308       -0.223991007901232        0.000000000000000
Se         11.591698528580164        2.861189426698825        8.232657393514092        0.290135494478931        0.179760814685050        1.005990069654436
Se         11.591698528580164        2.861189426698825       11.767357785258760        0.290135494478931        0.179760814685050       -1.005990069654436
Mo          9.992926567920419        3.807692158936239       10.000007589386426       -0.096290170386212        0.184463878688063        0.000000000000000
Se          9.942947807560021        5.718607973787025        8.317786328498457        0.112533636082603       -0.046316130142514        0.163987089746012
Se          9.942947807560021        5.718607973787025       11.682228850274395        0.112533636082603       -0.046316130142514       -0.163987089746012
Mo          8.268642738305344        6.632331936676731       10.000007589386426       -0.099472426190132        0.190143705218272        0.000000000000000
Se          8.276426152487556        8.607288971731620        8.426997109784899       -0.551519615016412       -0.349485323697804       -1.338955791053004
Se          8.276426152487556        8.607288971731620       11.573018068987952       -0.551519615016412       -0.349485323697804        1.338955791053004
Mo          6.553975979471871        9.572331419463103       10.000007589386426        0.130956626902193       -0.070928540366463        0.000000000000000
Se          6.605005009470298       11.500808379993510        8.353665451328846       -0.086982772785671        0.006515692541240       -0.311245546412422
Se          6.605005009470298       11.500808379993510       11.646348399669497       -0.086982772785671        0.006515692541240        0.311245546412422
