# total energy = -38122.03512985953 eV 

 CRYSTAL
 PRIMVEC
       13.277745107833699        0.000000000000000        0.000000000000000
       -6.638872553916849       11.498859207011680        0.000000000000000
        0.000000000000000        0.000000000000000       20.000015178772852
 PRIMCOORD
48 1
Mo          1.634851577441262        0.943875066480574        9.994664624755034        0.036242286347299        0.026989910378982        0.636106889916884
Se          1.629665290202142        2.872701231707317        8.393744324936842        0.173050746658008       -0.086829534968823       -0.838697825318508
Se          1.640263586347214        2.848132092159781       11.732728098243019       -0.132989856190178        0.053733251854679       -0.713246704074337
Mo         -0.024865233263440        3.818589204346238        9.986940960425805       -0.010382119201929        0.075130496139547       -0.077862037358004
Se          0.010681945939252        5.800997709955644        8.343732370213674       -0.372461226028729       -0.660570433201311       -0.194219676880188
Se         -0.060190674122832        5.669266545191804       11.682718799068875        0.330738630845643        0.650677595149487       -0.114923477538322
Mo         -1.684584699517163        6.693304669986414        9.997276357217745        0.004641357499585       -0.074616275277638       -0.652104043820421
Se         -1.657272377830350        8.638268606617217        8.275454221545662       -0.326134297248116       -0.296431614712136        0.631688961381799
Se         -1.711672627311655        8.581423924261559       11.614437994851839        0.379588841395641        0.332366139873583        0.742572719828969
Mo         -3.344301510221865        9.568020135626588       10.011386616943840       -0.027578693265867        0.071964181182346       -0.291892330053641
Se         -3.362815998000229       11.436258622151776        8.283266846767111        0.132679523900016        0.452576064982753        0.425931196802112
Se         -3.325563956325690       11.532858201134797       11.622258586720353       -0.168261293550194       -0.534823634961542        0.502891804989190
Mo          4.954287854399686        0.943875066480574        9.986940960425805        0.042181023081478        0.031168469102849       -0.424523002971776
Se          4.989836361376889        2.926282244315469        8.343732370213674       -0.354938121717480       -0.661105737118557       -0.182003588974263
Se          4.918963741314805        2.794552407326140       11.682718799068875        0.302545957870657        0.661781166220674       -0.106805987012237
Mo          3.294569715920474        3.818589204346238        9.997276357217745        0.047143768619755       -0.066352746026771        0.043687433096438
Se          3.321882037607288        5.763554468751553        8.275454221545662       -0.272409530037658       -0.269885734047412        0.663951178257927
Se          3.267481788125982        5.706708458621384       11.614437994851839        0.312118693435943        0.290316243111892        0.781649648677537
Mo          1.634851577441262        6.693304669986414       10.011386616943840       -0.004278831791939        0.072772279266835       -0.296916524984916
Se          1.616338417437409        8.561547139835133        8.283266846767111        0.167049274978676        0.476470365773047        0.570604408085278
Se          1.653590459111947        8.658145391043645       11.622258586720353       -0.188132587427348       -0.521326108667741        0.676279109201317
Mo         -0.024865233263440        9.568020135626588       10.009766732040683       -0.041058993160794       -0.051188372809095       -0.261025451486301
Se         -0.063466293840934       11.426288363350302        8.356374111330842        0.442974790159632        0.588395678576013       -0.350225030407659
Se          0.013957565657355       11.542837754357846       11.695357884637021       -0.437511450612287       -0.546253222059178       -0.251511079988842
Mo          8.273725459132622        0.943875066480574        9.997276357217745       -0.057379077765609       -0.047398822167262       -0.214760743429978
Se          8.301036453044924        2.888839003111378        8.275454221545662       -0.290034450079566       -0.321043253604792        0.646931239060054
Se          8.246636203563620        2.831994320755720       11.614437994851839        0.337087715827625        0.359434726044437        0.766267245814412
Mo          6.614007320653410        3.818589204346238       10.011386616943840       -0.002327620731428        0.077944826916771       -0.323230234930489
Se          6.595492832875046        5.686831674194957        8.283266846767111        0.165117604310917        0.475650183498304        0.571610481201602
Se          6.632744874549585        5.783431253177980       11.622258586720353       -0.185418272607765       -0.519244285508306        0.677742324663877
Mo          4.954287854399686        6.693304669986414       10.009766732040683       -0.037442992059855       -0.052955492801043       -0.240271240389250
Se          4.915688121596703        8.551572897710129        8.356374111330842        0.390534546662221        0.608401698318987       -0.378872274624572
Se          4.993111981094992        8.668119633168649       11.695357884637021       -0.405518428357368       -0.565720595449304       -0.295003366268186
Mo          3.294569715920474        9.568020135626588        9.994664624755034        0.076447158656463        0.024751249856664        0.118510425160564
Se          3.289382100906843       11.496847628627842        8.393744324936842        0.098550942405592       -0.188229775170249       -0.734111215546267
Se          3.299981724826427       11.472278489080308       11.732728098243019       -0.062203240781602        0.165156685096422       -0.640156379204412
Mo         11.593157752767514        0.943875066480574       10.011386616943840        0.036549019091427        0.042255585106455        0.299232575746951
Se         11.574648576087194        2.812117536329293        8.283266846767111        0.139136852373430        0.442719993722557        0.494269863797573
Se         11.611897962212710        2.908715787537805       11.622258586720353       -0.174373579825267       -0.523330798697891        0.586492804276521
Mo          9.933443597611834        3.818589204346238       10.009766732040683       -0.042831512471792       -0.058326272593244       -0.283014306872793
Se          9.894842537034341        5.676858759844464        8.356374111330842        0.415682003692986        0.594008656394173       -0.307428484954477
Se          9.972266396532630        5.793405495302984       11.695357884637021       -0.429643871425090       -0.542527949025084       -0.217687431465529
Mo          8.273725459132622        6.693304669986414        9.994664624755034        0.080201228058824        0.024840724286636        0.097086698501308
Se          8.268536516344481        8.622130835213156        8.393744324936842        0.094247428012281       -0.196277588769545       -0.797187089130528
Se          8.279136140264063        8.597561695665620       11.732728098243019       -0.045329854529373        0.167531614147146       -0.682079777634074
Mo          6.614007320653410        9.568020135626588        9.986940960425805       -0.073083897109151        0.021076627577467        0.358029103318410
Se          6.649554499856102       11.550428641235994        8.343732370213674       -0.473359329558502       -0.648396254295631       -0.261739704263491
Se          6.578681879794018       11.418697476472154       11.682718799068875        0.410573990761220        0.644720089353848       -0.160037873526556
