# total energy = -38122.099447803885 eV 

 CRYSTAL
 PRIMVEC
       13.277745107833699        0.000000000000000        0.000000000000000
       -6.638872553916849       11.498859207011680        0.000000000000000
        0.000000000000000        0.000000000000000       20.000015178772852
 PRIMCOORD
48 1
Mo          1.634851577441262        0.943875066480574       10.000056717043325        0.006780002064261        0.001820598961586        0.979061094447590
Se          1.635053399166901        2.860493672855174        8.371188091547653       -0.000860805722835       -0.035010470272597       -0.474729985265919
Se          1.634875477382455        2.860340978786434       11.710178503726384        0.001894389655270        0.033201441280404       -0.424111369171818
Mo         -0.024865233263440        3.818589204346238       10.000036800425663        0.001998005158945       -0.084995309154396       -0.123029655205445
Se         -0.024843988871268        5.735169305260026        8.231041491934469        0.033331539158467       -0.008396712454101        0.953196042204032
Se         -0.024664739312312        5.735093622112911       11.570027920789666       -0.039909966644860        0.012381667023460        1.181566926296569
Mo         -1.684584699517163        6.693304669986414        9.999925267366757        0.001413850259817        0.054949127082662       -1.057527341318336
Se         -1.684471838683747        8.609733404605972        8.388952386727425       -0.035916527431280        0.054278840189164       -0.662202570217007
Se         -1.684471838683747        8.609959126272805       11.727938815582622        0.031681918633465       -0.055320651655390       -0.564354310619213
Mo         -3.344301510221865        9.568020135626588       10.000056717043325        0.005775471610523        0.019543992298550        1.183552847265259
Se         -3.344101016270737       11.484638742001190        8.371760362361801       -0.063836406239023       -0.047396765283814       -0.490239914902798
Se         -3.344280265829692       11.484488703481469       11.710748118991511        0.063916110472619        0.045658441660133       -0.427594958400816
Mo          4.954287854399686        0.943875066480574       10.000036800425663       -0.059391481108688       -0.035965635523592       -1.170083346008432
Se          4.954310426566369        2.860453839619851        8.231041491934469       -0.004626445094589        0.038481203980047        0.951634096335986
Se          4.954489676125325        2.860379484247247       11.570027920789666       -0.003403884995402       -0.045695208451759        1.183329161190328
Mo          3.294569715920474        3.818589204346238        9.999925267366757       -0.083256471309853        0.032319038281369       -0.004748058328431
Se          3.294682576753890        5.735019266740307        8.388952386727425       -0.001056209650360       -0.000461513223563       -0.649758682469257
Se          3.294682576753890        5.735244988407141       11.727938815582622       -0.002966025931487       -0.001652448739742       -0.563853973720576
Mo          1.634851577441262        6.693304669986414       10.000056717043325        0.075180632673583        0.061337035739718       -0.019218490492962
Se          1.635053399166901        8.609921948586504        8.371760362361801       -0.003250904288984       -0.002970653919244       -0.453749774100059
Se          1.634874149607945        8.609770582292274       11.710748118991511       -0.000966220999526       -0.000821724937330       -0.406818635806703
Mo         -0.024865233263440        9.568020135626588       10.000036800425663        0.020268529492978       -0.085419284255039       -0.014584589195875
Se         -0.024842661096757       11.484597580991354        8.230977758757952        0.031934915297524       -0.022750159372548        0.950242871794093
Se         -0.024664739312312       11.484528536716795       11.569968170936683       -0.043152643400054        0.019814215361482        1.182596396462109
Mo          8.273725459132622        0.943875066480574        9.999925267366757        0.062712833655753        0.038396614648264        0.130452176236661
Se          8.273836992191526        2.860303801100132        8.388952386727425        0.004166731644043       -0.003604174021115       -0.655692534105248
Se          8.273836992191526        2.860529522766965       11.727938815582622       -0.013022386217397        0.000962621453492       -0.570941736970690
Mo          6.614007320653410        3.818589204346238       10.000056717043325        0.065995362527745        0.053997047156838       -0.034207771507158
Se          6.614207814604537        5.735206482946328        8.371760362361801       -0.002966025931487       -0.004112481343112       -0.454365553582194
Se          6.614028565045581        5.735056444426609       11.710748118991511        0.000137811190991        0.002526624204987       -0.406217511619132
Mo          4.954287854399686        6.693304669986414       10.000036800425663        0.019473544040468       -0.080433912998838        0.002343304467716
Se          4.954311754340880        8.609884770900202        8.230977758757952       -0.001093747773279       -0.002239946074473        0.918698764351620
Se          4.954489676125325        8.609807759978576       11.569968170936683       -0.002905862090644        0.001711327028431        1.142423148735952
Mo          3.294569715920474        9.568020135626588        9.999925267366757       -0.072637296290584        0.027163459919876        0.019535250543897
Se          3.294681248979380       11.484447542471637        8.388442521315284        0.024010514705085        0.026031145581954       -0.685833589926005
Se          3.294682576753890       11.484678575236511       11.727428950170481       -0.025879193317260       -0.028778370536699       -0.596320079168451
Mo         11.593157752767514        0.943875066480574       10.000056717043325        0.017887172681481        0.009630585412250        1.112857248949241
Se         11.593358246718642        2.860492345080663        8.371760362361801       -0.008697788768748       -0.048836840807588       -0.483791842404898
Se         11.593188291581262        2.860340978786434       11.710748118991511        0.004642128830877        0.047811998629805       -0.434505315453571
Mo          9.933443597611834        3.818589204346238       10.000036800425663        0.023647474776578       -0.077276082685859        0.001921900471382
Se          9.933466169778518        5.735170633034537        8.230977758757952       -0.036203719782655       -0.011682069540833        0.950525436157712
Se          9.933644091562963        5.735093622112911       11.569968170936683        0.033468321907734        0.018413477733644        1.181558955873209
Mo          8.273725459132622        6.693304669986414        9.999925267366757       -0.080700022294876        0.032441679956934        0.007528193418338
Se          8.273835664417017        8.609733404605972        8.388442521315284        0.033860158204508        0.022170632461177       -0.685531999390495
Se          8.273836992191526        8.609959126272805       11.727428950170481       -0.034439170895017       -0.027592577229139       -0.595678845753652
Mo          6.614007320653410        9.568020135626588       10.000056717043325        0.062950917914817        0.057946006265863        0.068932334980535
Se          6.614207814604537       11.484638742001190        8.372332633175949       -0.002264628675844        0.033102196654055       -0.524989160977545
Se          6.614028565045581       11.484488703481469       11.711317734256637       -0.003724758813233       -0.034677769374943       -0.467275068320403
