# total energy = -38121.244600978054 eV 

 CRYSTAL
 PRIMVEC
       13.277745107833699        0.000000000000000        0.000000000000000
       -6.638872553916849       11.498859207011680        0.000000000000000
        0.000000000000000        0.000000000000000       20.000015178772852
 PRIMCOORD
48 1
Mo          1.665690468228716        0.890462681235291       10.000007589386426       -0.912808621488891        1.486780404888375        0.000000000000000
Se          1.613099975405608        2.898286118755601        8.330514374958828        0.445770351875397       -0.680003610904119       -0.101265257225175
Se          1.613099975405608        2.898286118755601       11.669498148265003        0.445770351875397       -0.680003610904119        0.101265257225175
Mo          0.005972329749504        3.765178146875467       10.000007589386426       -0.912823019673024        1.486854966913352        0.000000000000000
Se         -0.046618163073604        5.773001584395777        8.330514374958828        0.445775494084016       -0.679998725805931       -0.101263714562589
Se         -0.046618163073604        5.773001584395777       11.669498148265003        0.445775494084016       -0.679998725805931        0.101263714562589
Mo         -1.653745808729709        6.639892284741131       10.000007589386426       -0.912804250611565        1.486874250195674        0.000000000000000
Se         -1.706336301552816        8.647715722261442        8.330514374958828        0.445777808077894       -0.679994612039036       -0.101264228783451
Se         -1.706336301552816        8.647715722261442       11.669498148265003        0.445777808077894       -0.679994612039036        0.101264228783451
Mo         -3.313463947208921        9.514607750381307       10.000007589386426       -0.912802965059410        1.486854452692490        0.000000000000000
Se         -3.366054440032029       11.522428532352594        8.330514374958828        0.445769837654535       -0.679941133069397       -0.101238260629925
Se         -3.366054440032029       11.522428532352594       11.669498148265003        0.445769837654535       -0.679941133069397        0.101238260629925
Mo          4.940573271477804        0.967631608027510       10.000007589386426        0.192497036992795       -0.340719657775284        0.000000000000000
Se          4.956667226323010        2.856489104930652        8.330514374958828       -0.225139520196304        0.320788714278148       -0.017558842661153
Se          4.956667226323010        2.856489104930652       11.669498148265003       -0.225139520196304        0.320788714278148        0.017558842661153
Mo          3.280855132998592        3.842345745893174       10.000007589386426        0.192512206508221       -0.340672092345557        0.000000000000000
Se          3.296949087843798        5.731204570570827        8.330514374958828       -0.225136434871133        0.320790256940734       -0.017556271556843
Se          3.296949087843798        5.731204570570827       11.669498148265003       -0.225136434871133        0.320790256940734        0.017556271556843
Mo          1.621136994519380        6.717061211533349       10.000007589386426        0.192513492060376       -0.340666178805645        0.000000000000000
Se          1.637230949364585        8.605918708436491        8.330514374958828       -0.225136949091995        0.320796170480646       -0.017555243115119
Se          1.637230949364585        8.605918708436491       11.669498148265003       -0.225136949091995        0.320796170480646        0.017555243115119
Mo         -0.038581143959832        9.591775349399013       10.000007589386426        0.192518377158564       -0.340623241363676        0.000000000000000
Se         -0.022487189114627       11.480638157400200        8.330514374958828       -0.225141577079752        0.320774058983583       -0.017540587820555
Se         -0.022487189114627       11.480638157400200       11.669498148265003       -0.225141577079752        0.320774058983583        0.017540587820555
Mo          8.226763402460724        1.025213205236653       10.000007589386426        1.121853028707465       -2.076893066922300        0.000000000000000
Se          8.298366298503739        2.817930533137503        8.330514374958828       -0.544985410524143        1.062261772793926       -0.203816837936414
Se          8.298366298503739        2.817930533137503       11.669498148265003       -0.544985410524143        1.062261772793926        0.203816837936414
Mo          6.567045263981512        3.899928670876828       10.000007589386426        1.121849429161431       -2.076875583412995        0.000000000000000
Se          6.638648160024527        5.692644671003167        8.330514374958828       -0.544983353640696        1.062262287014788       -0.203816066605121
Se          6.638648160024527        5.692644671003167       11.669498148265003       -0.544983353640696        1.062262287014788        0.203816066605121
Mo          4.907327125502300        6.774644136517002       10.000007589386426        1.121849943382293       -2.076874812081702        0.000000000000000
Se          4.978930021545315        8.567360136643343        8.330514374958828       -0.544988238738884        1.062259715910478       -0.203818123488569
Se          4.978930021545315        8.567360136643343       11.669498148265003       -0.544988238738884        1.062259715910478        0.203818123488569
Mo          3.247608987023088        9.649358274382667       10.000007589386426        1.121845829615398       -2.076831617529302        0.000000000000000
Se          3.319211883066103       11.442078257832538        8.330514374958828       -0.544992352505779        1.062244803505483       -0.203806039298314
Se          3.319211883066103       11.442078257832538       11.669498148265003       -0.544992352505779        1.062244803505483        0.203806039298314
Mo         11.551668782629067        1.015738206327703       10.000007589386426        1.088184931994879       -2.183382293883602        0.000000000000000
Se         11.619838053787195        2.814398652938819        8.330514374958828       -0.420473513684248        0.853944988094952       -0.174461511592653
Se         11.619838053787195        2.814398652938819       11.669498148265003       -0.420473513684248        0.853944988094952        0.174461511592653
Mo          9.891953299698875        3.890453671967877       10.000007589386426        1.088112941074212       -2.183335242674738        0.000000000000000
Se          9.960122570857004        5.689112790804484        8.330514374958828       -0.420499996058636        0.853951930076588       -0.174465368249118
Se          9.960122570857004        5.689112790804484       11.669498148265003       -0.420499996058636        0.853951930076588        0.174465368249118
Mo          8.232235161219663        6.765169137608053       10.000007589386426        1.088130424583517       -2.183342955987666        0.000000000000000
Se          8.300404432377793        8.563828256444658        8.330514374958828       -0.420497167843896        0.853945759426245       -0.174466653801273
Se          8.300404432377793        8.563828256444658       11.669498148265003       -0.420497167843896        0.853945759426245        0.174466653801273
Mo          6.572517022740451        9.639883275473718       10.000007589386426        1.088130938804379       -2.183370723914209        0.000000000000000
Se          6.640686293898580       11.438538410986791        8.330514374958828       -0.420498967616912        0.854029577426736       -0.174453541169294
Se          6.640686293898580       11.438538410986791       11.669498148265003       -0.420498967616912        0.854029577426736        0.174453541169294
