# total energy = -9492.251735224763 eV 

 CRYSTAL
 PRIMVEC
        5.178263970089500        0.000000000000000        0.000000000000000
       -2.589131985044750        4.484506054696759        0.000000000000000
        0.000000000000000        0.000000000000000       19.999998575148734
 PRIMCOORD
12 1
Se          2.572967516235718        4.466899439372058        8.368907240511023       -0.465611820942560        0.275378384183886      -10.445362711514289
Se         -0.020778302006381        4.466529711324593        8.340711593193884        0.134163822417915        0.174205943824285       -9.598993225156969
Se          3.864564292197644        2.231063834561810        8.364246285111545        0.056788495105708       -0.255100084494531      -10.588999510650279
Se          1.274040907624131        2.230969590157554        8.352098077837715        0.050035232526266       -0.251959994801288      -10.395976939936613
Se          2.561037313875029        4.478023386032604       11.690369511435314        0.175382738266762       -0.359796223310358        7.948384624768911
Se         -0.015852219491635        4.469347204750719       11.637776991249495       -0.379960108857939       -0.095787776604128        9.810183218921855
Se          3.865876464287664        2.232680488573272       11.678200073279205       -0.175421047720974        0.244986131472087        8.572367986535014
Se          1.269184213846584        2.224403033617084       11.640449493284459        0.322076323316366        0.026359218491852        9.740199302278718
Mo          1.271657870545096        0.732274878455060        9.989504499986186       -0.177288697891425       -0.469820204476418        1.138141488729273
Mo          3.852715906407682        0.741918359446558       10.002840083188358        0.862640977090684       -0.419098229989074        0.575776441514352
Mo         -0.012528809675632        2.969591466760753        9.989419058630681       -0.761513273946069        0.380496441216909        0.979447274314883
Mo          2.566285484408715        2.969541237600243        9.983969971454956        0.358708131966560        0.750136651597209        2.264831535974278
