# total energy = -9503.202481180806 eV 

 CRYSTAL
 PRIMVEC
        8.099322384569499        0.000000000000000        0.000000000000000
       -4.049661192284749        7.014215668096800        0.000000000000000
        0.000000000000000        0.000000000000000       19.999964538468078
 PRIMCOORD
12 1
Se          4.012392160332153        7.001837473696463        7.682803391891674       -0.032905507174376       -0.061365060776692        3.628505923859215
Se         -0.034666719670434        6.992076170358580        7.671574491337707        0.022404860063777        0.022884885238368        3.647408939853396
Se          6.037406611092657        3.482424339149186        7.704512005679035       -0.065594527365888        0.005320386147734        3.673645002448820
Se          1.999897642113716        3.492729107019074        7.700542527778358        0.078842142320801        0.029753076180447        3.643982943360931
Se          4.001192417338770        7.000399843973201       12.282274935269347        0.036158982567669        0.036244857451608       -3.635909161608109
Se         -0.038457202546413        7.009171410115690       12.296956576955855       -0.046127153975762       -0.019912945766969       -3.693141172207212
Se          6.038881497698887        3.484613585989735       12.289064597224332        0.054391197447491        0.015677822748292       -3.653887608492579
Se          1.997248353761723        3.481227259300747       12.300167958281339       -0.041079304884839       -0.036652634595101       -3.638743289888517
Mo          2.011207535891529        1.143990410072996       10.019321021291674        0.007800730475149        0.019316706677586        0.090873882047732
Mo          6.037690087376117        1.144860277297099        9.985690204954228       -0.000459456340115        0.033783025075222       -0.000889602091101
Mo         -0.047304092387078        4.661815267500658       10.018801854726824       -0.017057477320792       -0.013998634523730        0.043349847100595
Mo          4.015267419778676        4.646794264206235        9.960086627032126        0.003625257076454       -0.031051483856765       -0.105195704383171
