# total energy = -9518.13681226217 eV 

 CRYSTAL
 PRIMVEC
        5.709346257185899        0.000000000000000        0.000000000000000
       -2.854673128592950        4.944436592379419        0.000000000000000
        0.000000000000000        0.000000000000000       19.999925579116063
 PRIMCOORD
12 1
Se          2.833640467916102        4.933553436543971        8.329824856982212       -0.098204357544666       -0.070103987214393       -3.736640914689055
Se         -0.015878833810485        4.938043837375247        8.318884036749568       -0.000832523575430        0.041598410844936       -3.303227547235746
Se          4.263051808642439        2.463805574479746        8.366717510626897        0.072985166703665       -0.253664122737652       -4.704893086619331
Se          1.418037181112770        2.450862486514705        8.344368845637767       -0.270278084565048        0.330465322457539       -4.026046472654507
Se          2.834341575636485        4.925896061343833       11.646939617172325        0.036799187540745        0.017060048425101        5.784136232046487
Se         -0.029743410261436        4.933374163071495       11.626207839043230        0.009060314476394        0.121501390803853        6.048805195449839
Se          4.251957406995476        2.467081597362119       11.682348411724767        0.239255911297412       -0.153357887419936        5.017683352500926
Se          1.404720701902510        2.466740749390565       11.614412329675886       -0.115550826989850        0.030143369814635        6.307643408500013
Mo          1.393074206472476        0.818795045716427       10.025505833778055        0.425348841676001       -0.582416061283312       -2.158319940405483
Mo          4.269989235279545        0.814597534348144       10.039323022655070       -0.346150601408328       -0.009250576195300       -2.042139192859795
Mo         -0.033783914607646        3.288972250619192       10.022799032717524        0.299234889740830        0.034772643123965       -1.695741508327320
Mo          2.845360042978228        3.277916672526778       10.022944621047081       -0.251668431572586        0.493251449380564       -1.491259782816459
