# total energy = -9452.58689603142 eV 

 CRYSTAL
 PRIMVEC
        4.912722826541299        0.000000000000000        0.000000000000000
       -2.456361413270649        4.254540785855428        0.000000000000000
        0.000000000000000        0.000000000000000       20.000043430170312
 PRIMCOORD
12 1
Se          2.437264185827035        4.237482829657112        8.472660118491728        0.607658906283961        1.026044940379292      -20.169387196581678
Se         -0.010254817628122        4.244197047944145        8.463736648749597       -0.656028577438505        1.165227815519863      -20.390624037546530
Se          3.676781491656887        2.114072363054211        8.492595456449550       -0.858510498017405       -0.974914417417161      -22.683628191882182
Se          1.204952370566872        2.108553901503157        8.487219463860466        0.574316054266532       -1.099697565761714      -21.108197910173825
Se          2.439555971025617        4.251481633351341       11.552323240379804       -0.528023835394097       -1.030818452640387       19.479441382422994
Se         -0.021917130346049        4.240816112094921       11.529335627729852        0.755719804605379       -1.062325279070371       20.941439169982129
Se          3.664005464674184        2.109941254429372       11.519224261608265        0.224169442540314        0.768397662845298       19.973235849033735
Se          1.209951557315160        2.120647551285254       11.501185234661488       -0.291240555111172        1.293568858007959       20.852400799300977
Mo          1.216804314385903        0.690729320683989       10.036225534683069       -1.022067442012431       -0.359017692925429       -3.794186342903491
Mo          3.663704314764917        0.692366239929793       10.006649469450444        0.758600469873789       -0.638790608595184       -0.063018280847727
Mo         -0.027544654343852        2.831286663768367        9.963076074340435        0.940320466042710        0.165466246055291        4.169044095259144
Mo          2.443978404114070        2.827641423431073        9.977387818478714       -0.504914492749506        0.746858236492113        2.793480406826025
