# total energy = -9524.85731988254 eV 

 CRYSTAL
 PRIMVEC
        7.568240097473099        0.000000000000000        0.000000000000000
       -3.784120048736550        6.554285130414141        0.000000000000000
        0.000000000000000        0.000000000000000       20.000020487584848
 PRIMCOORD
12 1
Se          3.758170823914344        6.540339134386527        8.319434850235908        0.000510621315875       -0.028219926680667        1.704609504201360
Se         -0.031516422237907        6.549844087124944        8.299814187783209       -0.009510771951425       -0.036117844898717        1.657318668415099
Se          5.637113574545678        3.257754247725364        8.336373328398063       -0.008074810194546        0.017550100906500        1.408672055737518
Se          1.845886948357601        3.269613679958104        8.309668793214129        0.077094305611174       -0.031001347322729        1.710711248948764
Se          3.743129703544626        6.540035647958618       11.726070760334753        0.031559019847469       -0.023089545141408       -1.923063638971994
Se         -0.033198085187566        6.547559235439516       11.664550050230414        0.022339296903883       -0.054984865432564       -1.621767752016636
Se          5.660637935240654        3.264757140287556       11.649574773549544       -0.059353428764906       -0.009909550229835       -1.534233734466999
Se          1.853034394305655        3.271956807092282       11.707724589514468        0.029927139942203       -0.020052813841408       -1.861735344986929
Mo          1.870157537526188        1.071432723303228       10.017662406995770       -0.129381054181306        0.100260983881868       -0.031251772882478
Mo          5.641148203341641        1.063844805781501        9.983014247005530        0.056232365243554        0.077636037289195        0.160075668759906
Mo         -0.028383170837553        4.358979348172294        9.967065694648124        0.003753040960638        0.020643910722172        0.221295976363971
Mo          3.746206949968258        4.362321482999338       10.003565802990217       -0.015095724732612       -0.012715139252407        0.109369120898419
