# total energy = -9530.537255415353 eV 

 CRYSTAL
 PRIMVEC
        6.705204922078999        0.000000000000000        0.000000000000000
       -3.352602461039500        5.806875092643465        0.000000000000000
        0.000000000000000        0.000000000000000       20.000050559404965
 PRIMCOORD
12 1
Se          3.339689577400560        5.792039156232874        8.370107304231214       -0.104029194357932        0.021762598207253       -0.905934002786038
Se         -0.021281649902187        5.789711779604420        8.369673477472755       -0.072117161888764        0.056624715761190       -0.858166998481651
Se          4.996028071826296        2.894787831972251        8.391884468777143        0.028151021085171       -0.105457699912314       -1.312173625902233
Se          1.646755415551101        2.890458281154064        8.369379118976678        0.092071502435116       -0.044652111433378       -0.937433115903095
Se          3.313165127769800        5.797874696076558       11.627464340914058        0.125236948255186       -0.070468055584624        0.253207237501846
Se         -0.017643405711466        5.801098558603094       11.595470455628359       -0.085158317167621       -0.131102665626975        0.503271814206140
Se          5.018767433278542        2.884430972449608       11.617424637584230       -0.142360502956734        0.052958578126214        0.376377017892161
Se          1.645842837161206        2.887389308861228       11.583374265948928        0.058976761983558        0.067559108168808        0.741939971058391
Mo          1.642857679929896        0.956017389462148        9.979969341260052        0.121503704797732       -0.147398838961711        0.277975456646954
Mo          5.009293649244137        0.956567216265759        9.970400343315752        0.017509220347978       -0.086752144729106        0.519000030598899
Mo         -0.030705144899676        3.845694514242790        9.964208086570213        0.102706104080242        0.322439877465735        0.640751589852071
Mo          3.333836604024077        3.859865294325112        9.972082679230704       -0.142490086613934        0.064486895629337        0.701184625316554
