# total energy = -9504.943214872019 eV 

 CRYSTAL
 PRIMVEC
        5.443805113637699        0.000000000000000        0.000000000000000
       -2.721902556818850        4.714471323538089        0.000000000000000
        0.000000000000000        0.000000000000000       19.999957500357748
 PRIMCOORD
12 1
Se          2.710903892967256        4.701550452100870        8.382701552949728        0.436373736955315       -0.341997239506695       -7.942977849516375
Se         -0.015462584044777        4.710824518492463        8.418293695163202       -0.643999665926315        0.007391667779501       -9.617741717782145
Se          4.062294216455599        2.340919489082449        8.393080167398878       -0.526554963502056        0.434897923081638       -8.833726396029400
Se          1.346607396315501        2.338948287250801        8.363989017252109        0.457711845841063        0.017110184959138       -7.481033194650515
Se          2.715861021903735        4.694680914427970       11.640434580820868       -0.659004116455938        0.495567243032168        8.023596367804640
Se         -0.014249159884947        4.696090315571891       11.572262353763293        0.570545786907020       -0.348429371157875        9.451729883392371
Se          4.064015003252019        2.337517655266937       11.609098405445236        0.661073084093826       -0.255421215422793        8.372158665055318
Se          1.355516183383969        2.337703833401823       11.595994077775687       -0.885575998863088        0.589655005466827        9.560652403472222
Mo          1.344252406223341        0.781282389157521       10.031670406028427       -0.934171670086441       -0.316627381953155       -2.316560612019670
Mo          4.067794092761908        0.770860224267462        9.972152195960003        1.167078239291440        0.064016126430260        2.025404646240282
Mo         -0.018443611725005        3.125562339136619        9.971931177472390        0.298570516387244       -0.646941523477292        1.247936127390921
Mo          2.704198213828277        3.132595735343439       10.034641634859451        0.057953205357930        0.300778323657847       -2.489438066247215
