# total energy = -9528.279047093782 eV 

 CRYSTAL
 PRIMVEC
        6.572434350304899        0.000000000000000        0.000000000000000
       -3.286217175152450        5.691892458222800        0.000000000000000
        0.000000000000000        0.000000000000000       20.000068893967864
 PRIMCOORD
12 1
Se          3.195411107681767        5.690414974980852        8.256411649158190        0.034614520208928        0.255105740924012        0.220595093329190
Se          0.027370245608410        5.688180347301748        8.080616775860280       -0.325850961553204        0.415476572458654        1.792547442238027
Se          4.934659293203946        2.843490110394691        8.272911088351195       -0.139979146145236       -0.898521251951199       -0.680289260592909
Se          1.583729929438395        2.825398170358607        8.060484094958426        0.222022570441847        0.167285559464723        1.507182374695019
Se          3.279764359107320        5.725624163038870       11.963238332992750        0.143190969648715       -0.206108463207508       -2.969711352404505
Se          0.040861481599281        5.652972473730600       11.781743844626257       -0.885933639472545        0.120693806940226       -1.924351762231075
Se          4.927899544474658        2.834385317089214       11.809610309028114       -0.103126479634852        0.523598450656514       -1.984474979626258
Se          1.643792120748657        2.833674836935946       11.793176594178613       -0.100861336738146        0.071187707680864       -2.827613616308207
Mo          1.598414719507281        0.957336844004801        9.830585916294677        0.694487412811060       -0.174497249942556        2.162401054276018
Mo          4.904539141063370        0.964409440609164       10.101899949735873        0.335129305675047       -0.416427881053184       -0.879823152970489
Mo         -0.069492320116079        3.830659891158962        9.850939430990701        1.453244462937300       -0.191863002670062        2.203997922458369
Mo          3.310203274313887        3.761825471721349        9.803746066138338       -1.326937421068483        0.334070267809947        3.379540237136820
