# total energy = -38122.088850189604 eV 

 CRYSTAL
 PRIMVEC
       13.277745107833699        0.000000000000000        0.000000000000000
       -6.638872553916849       11.498859207011680        0.000000000000000
        0.000000000000000        0.000000000000000       20.000015178772852
 PRIMCOORD
48 1
Mo          1.634851577441262        0.943875066480574        9.999991656092297       -0.040600822372834        0.043260886891485        0.067958914888942
Se          1.699556684900756        2.831659721579003        8.330530308252955       -0.585037045016459        0.268109615190381       -0.044965786159142
Se          1.570369536099578        2.889173602288095       11.669518064882666        0.594720080956624       -0.307896940159675        0.055552051043249
Mo         -0.024865233263440        3.818589204346238       10.000036800425663       -0.049114777183450        0.018572629090405        0.049275985423658
Se         -0.081873231883924        5.693443991258659        8.330507736086272        0.523142850972864        0.411255847624110       -0.079788051596281
Se          0.032364503700345        5.776820263888790       11.669498148265003       -0.569186186948135       -0.422649439261413        0.022633431236895
Mo         -1.684584699517163        6.693304669986414        9.999995639415829        0.044355663106488       -0.028919524163293       -0.714566451916425
Se         -1.692154342003139        8.680139975814770        8.330503752762739        0.075133581464718       -0.779103226969367       -0.051038477427849
Se         -1.676790663138865        8.539552555064006       11.669488853843427       -0.066921731410473        0.813915722210130        0.042570802494804
Mo         -3.344301510221865        9.568020135626588        9.999991656092297       -0.016541713796298        0.001639336107764        0.636269640819678
Se         -3.279417153203414       11.456208434176297        8.330530308252955       -0.623181948552818        0.262279379058064        0.025021730030028
Se         -3.408962801122504       11.512908389110278       11.669518064882666        0.627821506279386       -0.287562076175511        0.112927272152394
Mo          4.954287854399686        0.943875066480574       10.000036800425663        0.015127606426050        0.003171457165820        0.723869478639639
Se          4.897281183553713        2.818728525618484        8.330507736086272        0.588501093852704        0.423139234632381       -0.025133058846631
Se          5.011518919137981        2.902104798248614       11.669498148265003       -0.613376528047519       -0.449229772723885        0.073027075703911
Mo          3.294569715920474        3.818589204346238        9.999995639415829        0.016516774084495       -0.053621665927645       -0.021900923619106
Se          3.287000073434498        5.805424510174595        8.330503752762739        0.086050233252601       -0.793300093635363       -0.048149327515217
Se          3.302363752298772        5.664838417198342       11.669488853843427       -0.087817353244549        0.792949652117973        0.055252774501618
Mo          1.634851577441262        6.693304669986414        9.999991656092297        0.041434117279556        0.036433576507929       -0.021336052002300
Se          1.699737262234223        8.581495624085143        8.330530308252955       -0.729782504330723        0.316869837089545       -0.045858987796277
Se          1.570191614315133        8.638196906793635       11.669518064882666        0.725454821556903       -0.319968532003404        0.054641365896809
Mo         -0.024865233263440        9.568020135626588       10.000036800425663       -0.043495114494085        0.017682255668011       -0.001900046084751
Se         -0.081610332530789       11.442517751195608        8.330507736086272        0.619979638135284        0.449813413402151       -0.042618110814100
Se          0.032101604347210       11.526608366512541       11.669498148265003       -0.655533896969349       -0.468644181365234        0.052717665652410
Mo          8.273725459132622        0.943875066480574        9.999995639415829        0.038493545280733       -0.007859865874269       -0.628700309732387
Se          8.266154488872134        2.930711700083442        8.330503752762739        0.033118137500775       -0.757909357035385       -0.068740530599043
Se          8.281518167736410        2.790122951558167       11.669488853843427       -0.014205094199786        0.771238218886479        0.028570111087626
Mo          6.614007320653410        3.818589204346238        9.999991656092297        0.040505434402950        0.038727515772902       -0.006464270455050
Se          6.678891677671859        5.706781486219477        8.330530308252955       -0.727479309090236        0.315975092789824       -0.048523680302686
Se          6.549346029752770        5.763481441153459       11.669518064882666        0.727736162410759       -0.320877931597689        0.051208684533140
Mo          4.954287854399686        6.693304669986414       10.000036800425663       -0.049641339346044        0.018937468791929       -0.002719457028202
Se          4.897544082906848        8.567799630006412        8.330507736086272        0.638804749668886        0.471224027429428       -0.047286979129797
Se          5.011256019784847        8.651891573097855       11.669498148265003       -0.643774437188799       -0.474256644962532        0.055667493626747
Mo          3.294569715920474        9.568020135626588        9.999995639415829        0.015012163842552       -0.047334030338661       -0.022832434710453
Se          3.286559252296918       11.554807641572559        8.330503752762739        0.086004210485460       -0.643140402866066       -0.084065854946496
Se          3.302805901210863       11.414318476135591       11.669488853843427       -0.091876355618022        0.687081861068287        0.018222701793876
Mo         11.593157752767514        0.943875066480574        9.999991656092297       -0.045656384776685        0.043352418204905       -0.127322370960656
Se         11.658048748658519        2.832066020579302        8.330530308252955       -0.544417967803028        0.209537287914713       -0.043728570765391
Se         11.528497789641385        2.888767303287795       11.669518064882666        0.603002379268950       -0.263713283931495        0.051436998595828
Mo          9.933443597611834        3.818589204346238       10.000036800425663       -0.042794488569734        0.015660082128556        0.040349111260929
Se          9.876698498344485        5.693085492140748        8.330507736086272        0.586604904424417        0.484991005454868       -0.071837682850317
Se          9.990410435222483        5.777178763006702       11.669498148265003       -0.599816781029428       -0.504275830439016        0.026001320771963
Mo          8.273725459132622        6.693304669986414        9.999995639415829        0.014103792689991       -0.049038158275025       -0.000014655294564
Se          8.265713667734556        8.680089520383360        8.330503752762739        0.096497401393561       -0.707292540714301       -0.028397332878025
Se          8.281960316648501        8.539601682720905       11.669488853843427       -0.076876790186587        0.739273735889396        0.070007056581923
Mo          6.614007320653410        9.568020135626588        9.999991656092297        0.048425207007631        0.039786039417140       -0.028244866392469
Se          6.679068271681794       11.456618716500127        8.330530308252955       -0.609415998969101        0.238611335447010       -0.053814755861292
Se          6.549168107968325       11.512508728982532       11.669518064882666        0.639998256289375       -0.246895947753215        0.046767101838407
