# total energy = -38121.77980274454 eV 

 CRYSTAL
 PRIMVEC
       13.277745107833699        0.000000000000000        0.000000000000000
       -6.638872553916849       11.498859207011680        0.000000000000000
        0.000000000000000        0.000000000000000       20.000015178772852
 PRIMCOORD
48 1
Mo          1.633487953018687        0.943087696195680       10.000007589386426        0.110098543191036        0.063565411844797        0.000000000000000
Se          1.570608535511519        2.823261547798298        8.331280500851548        0.800097836319360        0.461929485350435       -0.097629458621052
Se          1.570608535511519        2.823261547798298       11.668738661244836        0.800097836319360        0.461929485350435        0.097629458621052
Mo         -0.026230185460525        3.817803161835855       10.000007589386426        0.110135052872232        0.063567211617814        0.000000000000000
Se         -0.089109602967694        5.697975685663963        8.331280500851548        0.800097322098498        0.461937712884225       -0.097638714596567
Se         -0.089109602967694        5.697975685663963       11.668738661244836        0.800097322098498        0.461937712884225        0.097638714596567
Mo         -1.685948323939738        6.692517299701520       10.000007589386426        0.110114484037755        0.063574667820312        0.000000000000000
Se         -1.748827741446906        8.572691151304138        8.331280500851548        0.800098350540222        0.461935656000778       -0.097638714596567
Se         -1.748827741446906        8.572691151304138       11.668738661244836        0.800098350540222        0.461935656000778        0.097638714596567
Mo         -3.345666462418950        9.567231437567184       10.000007589386426        0.110118340694220        0.063596007986081        0.000000000000000
Se         -3.408545879926118       11.447407944718822        8.331280500851548        0.800091665669017        0.461940541098966       -0.097629458621052
Se         -3.408545879926118       11.447407944718822       11.668738661244836        0.800091665669017        0.461940541098966        0.097629458621052
Mo          4.955652806596771        0.944662436765469       10.000007589386426        0.013342745814366        0.007688887437684        0.000000000000000
Se          5.018755290221751        2.897571776068800        8.329748249066103       -0.861830565012316       -0.497578103712660       -0.021111337485646
Se          5.018755290221751        2.897571776068800       11.670268257481258       -0.861830565012316       -0.497578103712660        0.021111337485646
Mo          3.295934668117559        3.819377902405643       10.000007589386426        0.013330147403249        0.007710741824315        0.000000000000000
Se          3.359037151742539        5.772287241708975        8.329748249066103       -0.861821566147233       -0.497577332381367       -0.021101824399701
Se          3.359037151742539        5.772287241708975       11.670268257481258       -0.861821566147233       -0.497577332381367        0.021101824399701
Mo          1.636216529638347        6.694093368045818       10.000007589386426        0.013353544452466        0.007691715652425        0.000000000000000
Se          1.699319013263326        8.647002707349150        8.329748249066103       -0.861828508128869       -0.497576818160505       -0.021115708362972
Se          1.699319013263326        8.647002707349150       11.670268257481258       -0.861828508128869       -0.497576818160505        0.021115708362972
Mo         -0.023501608840866        9.568806178136972       10.000007589386426        0.013338117826609        0.007718712247675        0.000000000000000
Se          0.039600874784114       11.521718172989326        8.329748249066103       -0.861825422803697       -0.497570647510163       -0.021101824399701
Se          0.039600874784114       11.521718172989326       11.670268257481258       -0.861825422803697       -0.497570647510163        0.021101824399701
Mo          8.272360506935536        0.943087696195680       10.000007589386426        0.110114741148186        0.063566440286521        0.000000000000000
Se          8.209482417202880        2.823261547798298        8.331280500851548        0.800097322098498        0.461928456908711       -0.097637686154843
Se          8.209482417202880        2.823261547798298       11.668738661244836        0.800097322098498        0.461928456908711        0.097637686154843
Mo          6.612642368456323        3.817803161835855       10.000007589386426        0.110117055142065        0.063576210482897        0.000000000000000
Se          6.549764278723666        5.697975685663963        8.331280500851548        0.800090380116863        0.461940541098966       -0.097637686154843
Se          6.549764278723666        5.697975685663963       11.668738661244836        0.800090380116863        0.461940541098966        0.097637686154843
Mo          4.952924229977111        6.692517299701520       10.000007589386426        0.110107542056120        0.063579038697638        0.000000000000000
Se          4.890044812469944        8.572691151304138        8.331280500851548        0.800099121871515        0.461938484215518       -0.097627401737605
Se          4.890044812469944        8.572691151304138       11.668738661244836        0.800099121871515        0.461938484215518        0.097627401737605
Mo          3.293206091497900        9.567231437567184       10.000007589386426        0.110139423749558        0.063589066004445        0.000000000000000
Se          3.230326673990731       11.447407944718822        8.331280500851548        0.800100150313239        0.461936941552933       -0.097627401737605
Se          3.230326673990731       11.447407944718822       11.668738661244836        0.800100150313239        0.461936941552933        0.097627401737605
Mo         11.594528016062641        0.944662436765469       10.000007589386426        0.013326033636354        0.007675517695275        0.000000000000000
Se         11.657627844138601        2.897571776068800        8.329748249066103       -0.861824651472404       -0.497574504166627       -0.021112880148232
Se         11.657627844138601        2.897571776068800       11.670268257481258       -0.861824651472404       -0.497574504166627        0.021112880148232
Mo          9.934807222034408        3.819377902405643       10.000007589386426        0.013341203151780        0.007697629192337        0.000000000000000
Se          9.997909705659389        5.772287241708975        8.329748249066103       -0.861822080368095       -0.497573218614472       -0.021110823264784
Se          9.997909705659389        5.772287241708975       11.670268257481258       -0.861822080368095       -0.497573218614472        0.021110823264784
Mo          8.275089083555196        6.694093368045818       10.000007589386426        0.013337089384885        0.007705085394834        0.000000000000000
Se          8.338191567180175        8.647002707349150        8.329748249066103       -0.861824651472404       -0.497574761277058       -0.021112880148232
Se          8.338191567180175        8.647002707349150       11.670268257481258       -0.861824651472404       -0.497574761277058        0.021112880148232
Mo          6.615370945075984        9.568806178136972       10.000007589386426        0.013310092789635        0.007703028511387        0.000000000000000
Se          6.678472100926453       11.521718172989326        8.329748249066103       -0.861807425073530       -0.497564733970251       -0.021100024626684
Se          6.678472100926453       11.521718172989326       11.670268257481258       -0.861807425073530       -0.497564733970251        0.021100024626684
