# total energy = -38122.316082898644 eV 

 CRYSTAL
 PRIMVEC
       13.277745107833699        0.000000000000000        0.000000000000000
       -6.638872553916849       11.498859207011680        0.000000000000000
        0.000000000000000        0.000000000000000       20.000015178772852
 PRIMCOORD
48 1
Mo          1.634851577441262        0.943875066480574        9.994113598333058       -0.002552849468944        0.000806041201041        0.154650895777204
Se          1.704117590345298        2.848479969081607        8.319252191558361       -0.316994021427695        0.051240566226579        0.054082150709484
Se          1.565808630655037        2.872354682560002       11.658238620413561        0.306269688242166       -0.067259317406316        0.020922875539757
Mo         -0.024865233263440        3.818589204346238        9.925703999988478        0.191207628181560        0.108897580368049        1.070981415949305
Se         -0.003939506973494        5.801864746711185        8.319779318039144       -0.097360521110274       -0.295350465349974        0.050455093860014
Se         -0.045569221210085        5.668399508436263       11.658768402443362        0.078840856768646        0.292608896824710        0.017912883724576
Mo         -1.684584699517163        6.693304669986414        9.997875183522108       -0.004858615813741       -0.001636507893023       -0.007682459676910
Se         -1.751378396282121        8.628992773884884        8.340617411211376        0.286724924612324       -0.103286145212475       -0.018851079687128
Se         -1.617566608859883        8.590701084768403       11.679607823390109       -0.296839648966061        0.086065659878458       -0.049023760090892
Mo         -3.344301510221865        9.568020135626588       10.074077490470476        0.192524547808907        0.112830341519924       -1.069539540652514
Se         -3.372232574830704       11.419897784629903        8.342339534751863        0.177337291762876        0.272728089861610       -0.040817823576559
Se         -3.316148707269725       11.549228333078247       11.681328619156083       -0.200368215726026       -0.276291126213773       -0.074358136404960
Mo          4.954287854399686        0.943875066480574        9.953329676459836       -0.006881817794919        0.006187362520912        0.100194906501113
Se          4.915961643145923        2.915488765317311        8.331716010891085        0.231981485874426       -0.313053289852461        0.006635506002065
Se          4.992839787320281        2.805344558549787       11.670698456422752       -0.207282686545676        0.328120732437668       -0.021057344295146
Mo          3.294569715920474        3.818589204346238       10.055246992358546        0.000203374350885       -0.007289080717550       -0.271519927946557
Se          3.232716668110141        5.697391464879217        8.345664282126863        0.314048050109823        0.193338302322877        0.020595316850721
Se          3.356648485397639        5.772871462493720       11.684648055433042       -0.340159414146234       -0.206667935505265       -0.047293921111432
Mo          1.634851577441262        6.693304669986414       10.052656504288008       -0.004698693125687        0.004036633765980       -0.259738870889806
Se          1.666708871278487        8.550697894307522        8.330948557223852       -0.169035967278659        0.340910947935913        0.012587098257792
Se          1.603218677496358        8.668994636571256       11.669937641628072        0.191331041188418       -0.326290877500567       -0.014012261376571
Mo         -0.024865233263440        9.568020135626588        9.950457700193013        0.002612499088925       -0.005800925543188        0.238985688234479
Se          0.040640522226057       11.515907831730138        8.315410939898666       -0.388309255882313       -0.153306722444176        0.086470608807211
Se         -0.090149250409637       11.453207663781924       11.654398696528375        0.367681286006861        0.133111983644881        0.024367383983250
Mo          8.273725459132622        0.943875066480574       10.073676502568221       -0.009973570727143       -0.003990353888409       -0.343249367305441
Se          8.260491530583643        2.792394773746117        8.340031862652122        0.039608376109351        0.393088681683320        0.001834225814427
Se          8.287181126024899        2.928438550120981       11.679018291507321       -0.046124068650591       -0.372761273901653       -0.035654789012568
Mo          6.614007320653410        3.818589204346238        9.994113598333058        0.009753484198246        0.003459677958919        0.025946042029308
Se          6.683273333557445        5.723194106947271        8.319252191558361       -0.367049308567575        0.081590138606839        0.041198861235233
Se          6.544963046092674        5.747068820425667       11.658238620413561        0.376794308121600       -0.096070598078177       -0.000376152560486
Mo          4.954287854399686        6.693304669986414        9.925703999988478       -0.009343135950443       -0.004871728445719        0.356424220008395
Se          4.975214908464143        8.676578884576850        8.319779318039144       -0.093449357234600       -0.365308156729154        0.037683133202366
Se          4.933585194227552        8.543113646301927       11.658768402443362        0.088068293025160        0.382102095858218       -0.002721513911650
Mo          3.294569715920474        9.568020135626588        9.997875183522108        0.009291970974683        0.004061059256921        0.016324969703004
Se          3.227776019155516       11.503708239525061        8.340617411211376        0.345216004991810       -0.155840288630798       -0.043366045057746
Se          3.361587806577754       11.465417878183089       11.679607823390109       -0.330049832001117        0.139963976629810       -0.083039212995697
Mo         11.593157752767514        0.943875066480574        9.939730609920392        0.014678948724035       -0.005763387420268        0.447874286531895
Se         11.651088554672992        2.904105754436365        8.315493261918334       -0.691455052388386       -0.452309698576285       -0.720464565202513
Se         11.535457983626912        2.816727569430733       11.654478362999022        0.499604133908579        0.349745005233067       -0.547698954012434
Mo          9.933443597611834        3.818589204346238        9.953329676459836       -0.000042937441969        0.013217275924061        0.264419052064465
Se          9.895114730809050        5.790202903182975        8.331716010891085        0.229411667117039       -0.298252470784154        0.031492171135420
Se          9.971994202757919        5.680060024189962       11.670698456422752       -0.209601308412021        0.306950773773764       -0.001524921965989
Mo          8.273725459132622        6.693304669986414       10.055246992358546        0.011100999966877       -0.006975663102217       -0.303295434776889
Se          8.211869755773268        8.572105602744882        8.345664282126863        0.533898551630969        0.317465561958065        0.550121705603315
Se          8.335802900835276        8.647586928133896       11.684648055433042       -0.720341923526948       -0.423479391732533        0.722637919675369
Mo          6.614007320653410        9.568020135626588       10.052656504288008       -0.000783158372686        0.012137412114053       -0.281150256248376
Se          6.645863286716124       11.425408048849654        8.330948557223852       -0.159589472934972        0.322041356297757       -0.039814578674976
Se          6.582373092933995       11.543708774436920       11.669937641628072        0.174955677840947       -0.314851263096123       -0.078547750877358
