# total energy = -9449.603015830491 eV 

 CRYSTAL
 PRIMVEC
        6.240481462007200        0.000000000000000        0.000000000000000
       -3.120240731003600        5.404412958134786        0.000000000000000
        0.000000000000000        0.000000000000000       20.000031670846408
 PRIMCOORD
12 1
Se          3.108367590973985        5.386450980342690        9.001224281236366       -0.080894654891108       -0.836909879381653      -31.268235920482763
Se         -0.025804390845400        5.382563160391859        9.064557055449839       -0.951409638929763       -0.375200994780977      -32.223414284109452
Se          4.657793643394343        2.687905791749057        9.053672407683806        0.593458440071931        1.438509464139317      -35.134801935025024
Se          1.547681837851727        2.687197497103119        9.063354514672110       -0.112713870494702        0.299342361900968      -35.089096699266463
Se          3.094192961381182        5.399128518432757       10.945939902808353       -1.505314724524568       -0.121020337187538       31.596471581283069
Se         -0.031942528411430        5.396528733855686       10.989101568792179        1.052132650256056        0.424725863101799       32.618959655960545
Se          4.663438158876728        2.697436879085981       10.933546930672954        0.441342653143935       -1.340282480876728       35.338738072201402
Se          1.533026067138203        2.694339104088240       10.941981565417002        0.425800070482325       -0.178448523045460       34.788587827340251
Mo          1.529496450823292        0.889475792320565       10.026712615117670        0.315563201879435       -0.636416450875753       -0.120185499618230
Mo          4.650335643999098        0.897088555656067        9.967054860437173        0.770479228894303       -1.825455006295850       -0.671675804045514
Mo         -0.016682055044238        3.589646002286905       10.031133372185355       -0.275355244245100        0.808812080155690       -0.447660884874203
Mo          3.107341655821631        3.579760455602938       10.036809714123198       -0.673088368753176        2.342343903146184        0.612313376415524
