# total energy = -9527.935532605925 eV 

 CRYSTAL
 PRIMVEC
        6.771563749103600        0.000000000000000        0.000000000000000
       -3.385781874551800        5.864343495817446        0.000000000000000
        0.000000000000000        0.000000000000000       19.999962507379962
 PRIMCOORD
12 1
Se          3.345915647291703        5.875832808030550        8.394059541112945        0.825126251220593        0.213836945651560       -0.268603267217813
Se         -0.038797674500489        5.894961798465392        8.081233610595605       -0.029671057952972       -0.175634963599528        2.588931832603115
Se          5.042479480745116        2.953448678364781        8.316171660558005       -0.084206237241797       -0.102152545322398        0.094761391763759
Se          1.675305863375853        2.968417897188549        8.013237630365357        0.021661039587026       -0.256576926809932        2.743728252884240
Se          3.327560646593382        5.814395087291307       11.763922823603352       -0.052485752043690        0.367806241676304       -1.409760918412609
Se          0.007418925243518        5.867543736845271       11.904577005705107       -0.176333532640431       -0.098369422441338       -2.845013050502168
Se          4.977144725068265        2.961560334579832       11.760237738611089        0.519098761004386       -0.204413591246659       -2.153459781929157
Se          1.594410054203562        2.973487766967503       11.964314386786949        0.218295240524305       -0.300374403170818       -3.013543538673570
Mo          1.656086811143147        0.985961350873481       10.153298260002561        0.487935691220586        0.317611600682847       -1.005230308330967
Mo          5.060524343823728        0.970176835774321        9.905465121192742       -1.137608755916336        0.073731301174294        2.230948237830984
Mo          0.020465019962541        3.858184444911390        9.866693855790876        0.014894664375606        1.045285542369315        1.742060980905436
Mo          3.325570484007521        3.930901559387514        9.957437550123487       -0.606706055026845       -0.880749521853216        1.295180169078748
