# total energy = -9414.243420873292 eV 

 CRYSTAL
 PRIMVEC
        4.381587621720000        0.000000000000000        0.000000000000000
       -2.190793810860000        3.794564420100063        0.000000000000000
        0.000000000000000        0.000000000000000       19.999905673320075
 PRIMCOORD
12 1
Se          2.182111256828799        3.783662591938461        8.240153454051764       -0.681431345127207       -0.476795096247343      -16.639206986390541
Se         -0.028777391181933        3.792424014546853        8.243054503216104        0.792105044352288       -0.554215932105829      -16.099211832220789
Se          3.278925167695663        1.881966370518309        8.248054771010011       -0.291042322968906        0.229162269999013      -16.358273731345893
Se          1.073568274057353        1.885707370029734        8.255717291442876        0.151997259019326        0.760406413540811      -16.234606699382109
Se          2.176291632149631        3.784671233408981       11.805902167211602       -0.384579354860461        0.383211527367785       16.219143049622804
Se         -0.018492052398707        3.786015066332562       11.793569750691510        0.353863400116091        0.108113136443208       16.376377648120666
Se          3.259553292502515        1.891709268753966       11.751517463492052        0.475469949086205       -0.589755021424468       17.261880370510934
Se          1.085649187447959        1.885492672236269       11.743509673954597       -0.447230224902354        0.072229776257522       17.247761922526376
Mo          1.069621339927708        0.624628615542111       10.013991881558791        0.788879079775106       -0.563404287576838       -0.039146348664926
Mo          3.277173408964500        0.623176119245511       10.003604889942743       -0.816369841273587       -0.941231151189150       -0.268916684833146
Mo         -0.024629342180450        2.519540824847554       10.034773313489849        0.563533871234038        1.194903501460592       -0.526690717809600
Mo          2.178506524692410        2.519499199765148       10.006947164980591       -0.505195514450539        0.377375120585125       -0.939109990133778
