# total energy = -9519.66269538197 eV 

 CRYSTAL
 PRIMVEC
        8.099322384569499        0.000000000000000        0.000000000000000
       -4.049661192284749        7.014215668096800        0.000000000000000
        0.000000000000000        0.000000000000000       19.999964538468078
 PRIMCOORD
12 1
Se          4.050286459972838        6.997449260828502        8.423388422159702        0.041920827325352       -0.041458542770497        0.861384478414611
Se         -0.104973697561928        7.035022827302759        8.481213534324334        0.189005991561299        0.046599722947856        0.376213495658075
Se          6.092367802862108        3.438968234827017        8.380798945332682       -0.104398147826352        0.121513217883677        0.668489177364268
Se          1.945544709455347        3.514881563673110        8.512161045155775        0.299934230113025       -0.009278601232274       -0.108101566473815
Se          3.996071215795007        7.065848848298431       11.688014692997667        0.117206618165195        0.071487755553788       -1.932138608742953
Se          0.012163562357146        6.961094642373125       11.623989549547645       -0.079411127704502        0.170138199696159       -1.510993008392191
Se          6.051577185536701        3.425733132118392       11.577719740629076       -0.077402323907457        0.106030284842049       -1.601972305716614
Se          2.036222293076272        3.512075958399095       11.526278514367961        0.075947078868257       -0.059079091935078       -1.001998687324304
Mo          2.009360890387847        1.213974225001345        9.968859813039092       -0.124670533975794       -0.273811810328082        1.019317131732514
Mo          6.008124320943485        1.207414583802082        9.912158886821436        0.210362098177214       -0.230138261194915        1.161503570927492
Mo          0.009160333616948        4.686095416145121        9.888584189156669       -0.246825242384702       -0.080438026765733        1.090041783527230
Mo          4.116976280487383        4.599130561905283        9.860280297151553       -0.301669468411534        0.178435667523912        0.978254796136118
