# total energy = -38121.14463841774 eV 

 CRYSTAL
 PRIMVEC
       13.277745107833699        0.000000000000000        0.000000000000000
       -6.638872553916849       11.498859207011680        0.000000000000000
        0.000000000000000        0.000000000000000       20.000015178772852
 PRIMCOORD
48 1
Mo          1.578463649517313        1.005078832555134       10.000007589386426        1.368530175483937       -1.983280958784907        0.000000000000000
Se          1.623488483177977        2.833938182639507        8.340888277211578        0.182891391292348        0.526463432188637       -0.350751335459822
Se          1.623488483177977        2.833938182639507       11.659128229335787        0.182891391292348        0.526463432188637        0.350751335459822
Mo         -0.034832836515891        3.766962675817959       10.000007589386426       -0.011300774771728        1.314942705243609        0.000000000000000
Se         -0.058306562092030        5.775703605525221        8.334440604187213        0.696535554504041       -0.747859681620679       -0.281775548816456
Se         -0.058306562092030        5.775703605525221       11.665578557909171        0.696535554504041       -0.747859681620679        0.281775548816456
Mo         -1.629272268946950        6.626524250966564       10.000007589386426       -1.711350425480116        2.063933415650056        0.000000000000000
Se         -1.676620708001485        8.640707728393526        8.320564032775016       -0.174259937014785       -0.514333733387512        0.165771950357696
Se         -1.676620708001485        8.640707728393526       11.679448490448813       -0.174259937014785       -0.514333733387512       -0.165771950357696
Mo         -3.328358921670889        9.612434193012293       10.000007589386426       -0.191840891173000       -1.257523004029909        0.000000000000000
Se         -3.309789995137584       11.447317656052091        8.325512648376705       -0.518368053159614        0.654582331264388       -0.005232454380348
Se         -3.309789995137584       11.447317656052091       11.674498547072615       -0.518368053159614        0.654582331264388        0.005232454380348
Mo          4.990456432073425        0.861608813341458       10.000007589386426       -1.016828816981740        2.353151540111342        0.000000000000000
Se          4.940048800546045        2.908568404567108        8.325301532229490        0.256343470538625       -0.848679623579442       -0.017957620939562
Se          4.940048800546045        2.908568404567108       11.674717629866892        0.256343470538625       -0.848679623579442        0.017957620939562
Mo          3.340273042356148        3.811994148351177       10.000007589386426       -1.613682143183990        0.103328311323151        0.000000000000000
Se          3.325695406002258        5.725423440350876        8.320663615863324       -0.605755260653176        0.099368039355164        0.155057387368543
Se          3.325695406002258        5.725423440350876       11.679348907360506       -0.605755260653176        0.099368039355164       -0.155057387368543
Mo          1.603622320947637        6.774857908213239       10.000007589386426        0.707340363254458       -2.606489903932975        0.000000000000000
Se          1.652666328052442        8.560645580942310        8.334663670305023       -0.277696748939799        1.033289283881856       -0.282667207791005
Se          1.652666328052442        8.560645580942310       11.665348852918806       -0.277696748939799        1.033289283881856        0.282667207791005
Mo         -0.073942434731015        9.583424975500698       10.000007589386426        1.700914313087687       -0.230117949470870        0.000000000000000
Se         -0.053855861931884       11.488957992484767        8.340812594064463        0.675327286385925       -0.114053930060835       -0.409362743520995
Se         -0.053855861931884       11.488957992484767       11.659198601384857        0.675327286385925       -0.114053930060835        0.409362743520995
Mo          8.277601232929598        1.002113912072554       10.000007589386426       -0.435856430768235       -1.916838224107301        0.000000000000000
Se          8.306149712685951        2.816983829911314        8.327708787417540       -0.553939281282122        0.811407609956172       -0.096795135272606
Se          8.306149712685951        2.816983829911314       11.672307719129822       -0.553939281282122        0.811407609956172        0.096795135272606
Mo          6.557618064954950        3.879794298195308       10.000007589386426        1.647373894056223       -1.756405686069231        0.000000000000000
Se          6.602642898615614        5.708653648279681        8.340888277211578        0.255697866246499        0.576968148361824       -0.355299361872970
Se          6.602642898615614        5.708653648279681       11.659128229335787        0.255697866246499        0.576968148361824        0.355299361872970
Mo          4.944321578921747        6.641678141458135       10.000007589386426        0.596459947242890        1.626585230161425        0.000000000000000
Se          4.920847853345607        8.650419071165397        8.334440604187213        0.738218811791191       -0.766957073100662       -0.277260946759332
Se          4.920847853345607        8.650419071165397       11.665578557909171        0.738218811791191       -0.766957073100662        0.277260946759332
Mo          3.349882146490687        9.501239716606740       10.000007589386426       -1.953803762096874        1.865607685187530        0.000000000000000
Se          3.302533707436152       11.515417882935658        8.320564032775016       -0.278048733119776       -0.539708476039240        0.201508243376877
Se          3.302533707436152       11.515417882935658       11.679448490448813       -0.278048733119776       -0.539708476039240       -0.201508243376877
Mo         11.551368705589629        0.941584655449473       10.000007589386426        1.310314203265572        0.149491203648816        0.000000000000000
Se         11.560708271498481        2.875324914140625        8.339800829887245        0.492515342216742       -0.536352413583995       -0.552086800627097
Se         11.560708271498481        2.875324914140625       11.660218332209139        0.492515342216742       -0.536352413583995        0.552086800627097
Mo          9.969610847511063        3.736324278981634       10.000007589386426       -1.063239306652414        2.167685702073851        0.000000000000000
Se          9.919203215983682        5.783282542432772        8.325301532229490        0.461787303282117       -0.885391650684094        0.081977346915856
Se          9.919203215983682        5.783282542432772       11.674717629866892        0.461787303282117       -0.885391650684094       -0.081977346915856
Mo          8.319427457793784        6.686708286216842       10.000007589386426       -1.276628365933251        0.181365183774204        0.000000000000000
Se          8.304849821439895        8.600138905991052        8.320663615863324       -0.299707201602492        0.342193671875944        0.400180044479467
Se          8.304849821439895        8.600138905991052       11.679348907360506       -0.299707201602492        0.342193671875944       -0.400180044479467
Mo          6.582776736385274        9.649573373853414       10.000007589386426        0.767620675122954       -2.323249596991373        0.000000000000000
Se          6.631820743490079       11.435358391033464        8.334663670305023       -0.463553394832341        1.032970981168335       -0.428009420415514
Se          6.631820743490079       11.435358391033464       11.665348852918806       -0.463553394832341        1.032970981168335        0.428009420415514
