# total energy = -9526.095295002478 eV 

 CRYSTAL
 PRIMVEC
        6.638793177329500        0.000000000000000        0.000000000000000
       -3.319396588664750        5.749360861396781        0.000000000000000
        0.000000000000000        0.000000000000000       19.999981854470612
 PRIMCOORD
12 1
Se          3.284009829391631        5.735803781849356        8.069581235752329        0.108524513132735        0.012877375934339        2.870757517953608
Se         -0.026198669515695        5.728712222977332        7.992571898774625        0.020993580908269        0.014044143070009        3.258168944211029
Se          4.952542365805078        2.861788558227334        8.025708107160629        0.053511108442335       -0.008646880903419        3.110595784377131
Se          1.640284471443910        2.861596033225192        8.009773011897087        0.012284479280559       -0.036285995120561        3.187555107012054
Se          3.281666999279351        5.738367683774441       12.009519100288422        0.094563930952786       -0.001542662585725       -3.381309671122646
Se         -0.017011907516907        5.732252691378802       11.976109373623512       -0.025682246727149       -0.000988589607019       -3.280129003229255
Se          4.946050953836285        2.867590863464320       11.942266133764122        0.068187486062060       -0.035012012935183       -3.127191234253498
Se          1.627812170701662        2.858258711894948       11.992560966996253        0.067788707783650       -0.021432725524339       -3.310582191113189
Mo          1.643053512078175        0.943187952048192        9.974798034885977       -0.032448364828139        0.011180961310904        0.249013252152122
Mo          4.961178771849466        0.943606859897682        9.971408267089631       -0.135419549762695       -0.008409825086080        0.274995289641764
Mo         -0.007920744139872        3.807681818495288       10.013381373073980       -0.096734971431763        0.118713285290586       -0.110235840161166
Mo          3.301304549497892        3.822147084949372        9.975485813859146       -0.135568673812648       -0.044497073843513        0.258362044532046
