# total energy = -9507.085573259641 eV 

 CRYSTAL
 PRIMVEC
        8.099322384569499        0.000000000000000        0.000000000000000
       -4.049661192284749        7.014215668096800        0.000000000000000
        0.000000000000000        0.000000000000000       19.999964538468078
 PRIMCOORD
12 1
Se          4.004163248789430        7.007515908620285        7.840853568904164       -0.065047910589679        0.010394717613046        3.606999664751623
Se         -0.026036891669676        6.988073485236125        7.858650209979777        0.055406269428898        0.050534283872748        3.675832240884948
Se          6.039505955454738        3.490630572589232        7.835444031483509       -0.022143635865927       -0.066313151020404        3.625099724869934
Se          1.985470319150082        3.489803631773767        7.817644150678941        0.027561723977424        0.011510576883387        3.631903895314705
Se          4.037858859705954        6.983947690413426       12.146560259596786        0.048358358295583       -0.043910862060937       -3.603651058498876
Se         -0.029262041843211        6.988754638248667       12.197781184289042       -0.063990158276734       -0.026791164015855       -3.656402405617742
Se          6.052310174212503        3.477443255882676       12.161455723394248       -0.013092577365048        0.077920658536261       -3.619591390997173
Se          2.013921618822598        3.477325815708099       12.193589784955027        0.009596389724933        0.011386135434805       -3.641656608181658
Mo          2.011572815331073        1.149221762401189       10.038854157086542       -0.017206601370745       -0.048035941815166        0.063147864504928
Mo          6.029977102669291        1.150280343836853        9.973710497215210        0.024327274756021       -0.011031837260950       -0.122390735784524
Mo         -0.033969368013123        4.670722092326970       10.037634399135426       -0.027507987897355        0.015549010422384       -0.006611851842417
Mo          4.009878130663982        4.657725109696450       10.033268864370141        0.043738598072198        0.018787573410682        0.047320660596252
