# total energy = -9528.756378248054 eV 

 CRYSTAL
 PRIMVEC
        6.506022605555400        0.000000000000000        0.000000000000000
       -3.253011302777700        5.634378226976116        0.000000000000000
        0.000000000000000        0.000000000000000       19.999994935150113
 PRIMCOORD
12 1
Se          3.237345450945783        5.610469244502960        8.494190896962209       -0.082797272080169       -0.005147350827702       -3.946506018403234
Se         -0.021739223934203        5.630212420701779        8.452694183579455        0.083510496415636       -0.169496966281360       -3.354279137295573
Se          4.847828069861672        2.808614826296196        8.438365319392979        0.202418928523316       -0.127993429185446       -2.872945527721028
Se          1.600087946598992        2.813178801153994        8.480584851887212       -0.031067681813915        0.140123899317863       -3.646034170379084
Se          3.234275258878222        5.611776304444415       11.572672938527800        0.122469925797258        0.175004014601967        2.244933245501874
Se         -0.016079634869630        5.616912809291501       11.519106252007221       -0.172296127543158        0.259953043878791        3.156392551449117
Se          4.844461853765557        2.807907621638972       11.542751089962591        0.222946111109835       -0.246945570066389        2.813048824615515
Se          1.601720958272987        2.812884728932222       11.550465280965998       -0.019084021737573       -0.195439665875065        2.624698207542718
Mo          1.607370788303651        0.931739208182279        9.967497932853524       -0.070865291200448       -0.068442796719998        1.594263620775746
Mo          4.861758765464686        0.915757814253993        9.985892410566212        0.064037466596029        0.466649775752322        0.657685397055574
Mo         -0.029650547422558        3.752126682383227        9.998868022050733       -0.130224633505266       -0.314817067408806        0.015004707640054
Mo          3.238642751853331        3.736250686021151        9.994133589400668       -0.189047900561545        0.086551855703392        0.713738042107891
