# total energy = -9526.751895514752 eV 

 CRYSTAL
 PRIMVEC
        6.605613763817199        0.000000000000000        0.000000000000000
       -3.302806881908599        5.720626659809790        0.000000000000000
        0.000000000000000        0.000000000000000       20.000021566736013
 PRIMCOORD
12 1
Se          3.267814303556154        5.733332557884492        8.363883484803910        1.008100432071708       -0.929300970082445       -0.403388525547344
Se          0.036949161149288        5.652082187466788        8.542505226029913       -1.376940000570017       -0.695987652175677       -3.264996768815447
Se          4.929264883045220        2.844208182987332        8.320756093101323        0.306546339065873        0.459541443667733        0.401363523793149
Se          1.668140745109060        2.830301384330367        8.325109853133055        0.062193984806088       -0.133353153229116        0.794709315907423
Se          3.299663270318399        5.666730796549428       11.522075646265389       -0.837537228833181        0.971522359501583        4.185964018499376
Se          0.016847617904616        5.670997362479478       11.406240263864465        1.100101743359174        1.172504040715866        7.007623214337116
Se          4.949570539755194        2.856575873637327       11.580612613756207        0.553204716780886       -1.758528904008050        3.973753039213170
Se          1.675553564874815        2.832969391729574       11.429858635876993        0.213831803442940       -1.025703497726985        6.976776390383390
Mo          1.657809565182450        0.887765425156471       10.108606413083784       -1.114075952391963        0.652711595768766       -5.652755372933220
Mo          4.950899589244474        0.920882669761368        9.923722550009682        1.373978088405425        1.479605224091738        0.457360375881948
Mo          0.020285179307306        3.759680855076134       10.162066966397109       -1.196917704576687       -1.145750671933361       -7.155570469848051
Mo          3.348313615688912        3.756952736591677       10.159484831976833       -0.092486221560245        0.952740185409951       -7.320838483761077
