# total energy = -38121.892951675305 eV 

 CRYSTAL
 PRIMVEC
       13.277745107833699        0.000000000000000        0.000000000000000
       -6.638872553916849       11.498859207011680        0.000000000000000
        0.000000000000000        0.000000000000000       20.000015178772852
 PRIMCOORD
48 1
Mo          1.631014309105097        0.941851538126140       10.000007589386426        0.682318119003568        0.217086821498820        0.000000000000000
Se          1.565379759488054        2.837015963955503        8.336507949100502        0.791825822424272        0.352951429417497       -0.115801509660031
Se          1.565379759488054        2.837015963955503       11.663508557446860        0.791825822424272        0.352951429417497        0.115801509660031
Mo         -0.032566325425984        3.814232776176358       10.000007589386426       -0.737650083517920       -0.408904829843465        0.000000000000000
Se         -0.109184225796227        5.686782546538058        8.338579277337324        0.960366080792051        0.499577908644622       -0.181613038229643
Se         -0.109184225796227        5.686782546538058       11.661438556984550        0.960366080792051        0.499577908644622        0.181613038229643
Mo         -1.692305708297368        6.688788908875239       10.000007589386426       -0.107841627828121       -0.242041702816800        0.000000000000000
Se         -1.741621909176885        8.560672136432528        8.336627448806473        0.740605310811308        0.536956880207169       -0.129884733515545
Se         -1.741621909176885        8.560672136432528       11.663387729966379        0.740605310811308        0.536956880207169        0.129884733515545
Mo         -3.348190561763949        9.565598274918921       10.000007589386426        0.510754241967768        0.146444702152440        0.000000000000000
Se         -3.345545634938468       11.459097671511760        8.331624394449841        0.147314506740358        0.337005440489720       -0.048977737323751
Se         -3.345545634938468       11.459097671511760       11.668388128773989        0.147314506740358        0.337005440489720        0.048977737323751
Mo          4.955300946351414        0.944250826667126       10.000007589386426        0.205306535773362        0.038053629333371        0.000000000000000
Se          5.002266986346843        2.865839293035588        8.326815195171784       -0.616324299138409       -0.140578470559790        0.020848827735642
Se          5.002266986346843        2.865839293035588       11.673198655826557       -0.616324299138409       -0.140578470559790       -0.020848827735642
Mo          3.300735900748552        3.822000257064441       10.000007589386426       -0.063855689521345       -0.026181040963200        0.000000000000000
Se          3.376987335353819        5.773467633249062        8.323001826776814       -1.073055011574950       -0.555055140552463       -0.008163770403657
Se          3.376987335353819        5.773467633249062       11.677018663094081       -1.073055011574950       -0.555055140552463        0.008163770403657
Mo          1.643095729378715        6.698046152764421       10.000007589386426       -0.059101974763433       -0.036374955329671        0.000000000000000
Se          1.710642274291287        8.661966726085678        8.322936765825785       -1.036169692039836       -0.657293817869231       -0.010615575473235
Se          1.710642274291287        8.661966726085678       11.677078412947067       -1.036169692039836       -0.657293817869231        0.010615575473235
Mo         -0.018659215200039        9.571728609835207       10.000007589386426       -0.033820048977279       -0.048490513057093        0.000000000000000
Se          0.006537961691097       11.524458699579583        8.326653206681469       -0.395637674495800       -0.438341403083407        0.056070128561622
Se          0.006537961691097       11.524458699579583       11.673357988767851       -0.395637674495800       -0.438341403083407       -0.056070128561622
Mo          8.275669321016409        0.945197529893314       10.000007589386426       -0.113231433792213        0.327895503700152        0.000000000000000
Se          8.253868591323856        2.873673162649210        8.331441161567353        0.287525823604746       -0.041501994433328       -0.043647580979640
Se          8.253868591323856        2.873673162649210       11.668578000529031        0.287525823604746       -0.041501994433328        0.043647580979640
Mo          6.610172707866267        3.816568331540826       10.000007589386426        0.064201503050978        0.038048744235183        0.000000000000000
Se          6.544564713739438        5.711760640634915        8.336505293551481        0.847723944107585        0.305700959968896       -0.127617019514529
Se          6.544564713739438        5.711760640634915       11.663508557446860        0.847723944107585        0.305700959968896        0.127617019514529
Mo          4.946589417786163        6.688948241816533       10.000007589386426        0.200904805195427        0.117270124441641        0.000000000000000
Se          4.869964878543366        8.561508634374320        8.338579277337324        1.030899956646999        0.586145448084302       -0.190760770252562
Se          4.869964878543366        8.561508634374320       11.661438556984550        1.030899956646999        0.586145448084302        0.190760770252562
Mo          3.286848707140269        9.563503046740903       10.000007589386426        0.195700118741622        0.131456963800829        0.000000000000000
Se          3.237492673025429       11.435378307651126        8.336630104355494        0.636622653441378        0.547821852798430       -0.174564612875466
Se          3.237492673025429       11.435378307651126       11.663387729966379        0.636622653441378        0.547821852798430        0.174564612875466
Mo         11.588507886430751        0.941026990154944       10.000007589386426        0.051087071299299       -0.613403010421908        0.000000000000000
Se         11.582767917220634        2.830193858519098        8.332479481234785       -0.074314941852560        0.131008820319676       -0.031774478388608
Se         11.582767917220634        2.830193858519098       11.667538353087087       -0.074314941852560        0.131008820319676        0.031774478388608
Mo          9.934451378465518        3.818962308983769       10.000007589386426       -0.014197637997289        0.001509752450563        0.000000000000000
Se          9.981377585225625        5.740521564312994        8.326820506269828       -0.667482075806220       -0.158557174554691       -0.001513866217458
Se          9.981377585225625        5.740521564312994       11.673198655826557       -0.667482075806220       -0.158557174554691        0.001513866217458
Mo          8.279887660637167        6.696711739381083       10.000007589386426       -0.067310996602938        0.006819082849766        0.000000000000000
Se          8.356128473046349        8.648159198948044        8.323004482325835       -1.021036686294736       -0.473251600287932        0.014823444786231
Se          8.356128473046349        8.648159198948044       11.677008040897995       -1.021036686294736       -0.473251600287932       -0.014823444786231
Mo          6.622250144816353        9.572761618404595       10.000007589386426       -0.032117463703501       -0.003981355023325        0.000000000000000
Se          6.689820589670118       11.536678208402321        8.322935438051275       -0.899435793754103       -0.655193482758766        0.028131737802850
Se          6.689820589670118       11.536678208402321       11.677078412947067       -0.899435793754103       -0.655193482758766       -0.028131737802850
