# total energy = -9529.3376744869 eV 

 CRYSTAL
 PRIMVEC
        6.771563749103600        0.000000000000000        0.000000000000000
       -3.385781874551800        5.864343495817446        0.000000000000000
        0.000000000000000        0.000000000000000       19.999962507379962
 PRIMCOORD
12 1
Se          3.405019887163003        5.836222545880168        8.142770196165584       -0.451992167194056        0.262742434944213        2.270941251145042
Se         -0.088531424455780        5.860838534420910        8.326301242770288        0.614222164254928        0.658870419031842        0.756298817295888
Se          5.049564567895803        2.965464141081191        8.156022146422579       -0.140732479707932       -0.312449851671011        2.139952999659842
Se          1.610768120752271        2.965340898620957        8.342896991206592        0.393541196041799        0.034357152667543        0.181203204202703
Se          3.355977513866495        5.835356462876658       11.863173633473963        0.062571165808298        0.046313044817342       -2.049962034832007
Se         -0.088475897633038        5.866504301809784       11.846065277661852        0.330032091381381        0.075545472375107       -2.086624696733915
Se          5.135142236244224        2.877162949792880       11.640469090580693       -0.619390855248399        0.775949767533714       -0.179184887319712
Se          1.689895197473297        2.873181270308407       11.637255983581744       -0.368840339829602        0.847645268315713       -0.195155301738430
Mo          1.623854167697414        1.012188294430135        9.976793387943925       -0.108725316379310       -1.268280761571462        0.486743470152252
Mo          5.098027295335388        0.969108960171087       10.082565890861298       -0.470011494637048       -0.696999895942344       -1.563331693269375
Mo         -0.056712523555118        3.953368930750664        9.953847267023715        0.029478739350618       -0.409825028075850        0.844394621137160
Mo          3.344545759945259        3.933650137113275       10.011622248931065        0.729847553269755       -0.013868279535237       -0.605275492589016
