# total energy = -9418.81866773853 eV 

 CRYSTAL
 PRIMVEC
        4.381587621720000        0.000000000000000        0.000000000000000
       -2.190793810860000        3.794564420100063        0.000000000000000
        0.000000000000000        0.000000000000000       19.999905673320075
 PRIMCOORD
12 1
Se          2.178092902820920        3.785083540804185        8.234708893273014        0.467185336780000       -0.128030453087503      -15.593256299336348
Se         -0.014228767642774        3.790327863028622        8.163595726172499       -0.433365030692289       -0.968876950277496      -14.741659243696867
Se          3.264960609786479        1.883164734732850        8.211885641510237        0.770826585086522        0.984015355341646      -14.983165385485989
Se          1.083683607240856        1.887892029617923        8.221689005655074       -0.725087667861500        0.180026923981087      -14.565498746376472
Se          2.171238347145501        3.792041501947476       11.836242908856965       -0.123108588107748       -0.307235137910399       14.482007019022294
Se         -0.017846644542028        3.789575106275210       11.823773786803075        0.317217964613056       -0.245801685759074       15.013205396907383
Se          3.267363034279469        1.880342554145700       11.793947881703264        0.046894114391299        0.227581297959076       14.917679358721966
Se          1.088395566569254        1.884532666388351       11.775446189811790       -0.233501265631796        0.326809983460663       15.437531196178616
Mo          1.075847575938172        0.618252967393746       10.015560051768606        0.791156306862067       -0.427499313320501        0.081361824544152
Mo          3.270320167765368        0.628450674424537        9.970727647223166       -0.870137545926014       -0.147625610361813       -0.124970324738287
Mo         -0.016770964780895        2.522282822381226       10.033947384223152       -0.208819949812351        0.581363708289417       -0.276891479070051
Mo          2.170589434018725        2.525199645261005       10.009833316747017        0.200739740298755       -0.074727861204672        0.353656683329604
