# total energy = -9514.199803659098 eV 

 CRYSTAL
 PRIMVEC
        8.630457589390799        0.000000000000000        0.000000000000000
       -4.315228794695400        7.474192033852167        0.000000000000000
        0.000000000000000        0.000000000000000       20.000041178044860
 PRIMCOORD
12 1
Se          4.272854110977249        7.468990457063041        8.510539107277731       -0.066598543598764        0.051033335219230        0.856953437247547
Se         -0.044641904926883        7.465615948145588        8.484946348342152        0.014305110157428        0.033403530079134        0.955510550303482
Se          6.432111747449969        3.730056152670417        8.517299344707501        0.009491488669104       -0.063934108202786        0.863083978363218
Se          2.143892832826327        3.716090346199265        8.479608410323115        0.018594997697898       -0.006116914262830        1.027742640554882
Se          4.303219512959762        7.448763253610786       11.492886073187929        0.098858703591444       -0.049096522342852       -0.709706550550529
Se         -0.016491078361808        7.454152974375360       11.506766438128945       -0.040990087565298       -0.041459828322651       -0.814183374168753
Se          6.429065195920915        3.722139433923669       11.517655486469481        0.003372517522826        0.056121807758243       -0.784442125068130
Se          2.112906900943138        3.727955499293159       11.541824219902811       -0.047045552435131        0.019421350622985       -0.957578746610077
Mo          2.126366099553792        1.213009088097359        9.987309651084775        0.024531163327768        0.038058771541990       -0.089340475437521
Mo          6.437873440936647        1.238458581436955        9.964854926528700       -0.017659887060518       -0.012125070813367       -0.435156319064747
Mo         -0.030664015815106        4.962327559061537        9.989963516793512        0.019630124292919        0.017835236374428        0.102123491843700
Mo          4.293347132523258        4.969407986467874        9.988956342392830       -0.016490548820538       -0.043141587651523       -0.015007021633933
