# total energy = -9526.961240404384 eV 

 CRYSTAL
 PRIMVEC
        6.771563749103600        0.000000000000000        0.000000000000000
       -3.385781874551800        5.864343495817446        0.000000000000000
        0.000000000000000        0.000000000000000       19.999962507379962
 PRIMCOORD
12 1
Se          3.327413703660027        5.801908323737960        7.926202721498128       -0.007731567769223        0.157390664529452        3.259278632831027
Se         -0.089590497026140        5.907795943239068        8.109399930010001        0.295299557484645       -0.366869074155477        3.080608737704516
Se          4.991765885515330        2.924225317849150        8.263598593922714        1.003789204365468       -0.546220311924016        1.179225164491438
Se          1.667394645447775        2.918251444309690        8.063451484190459       -0.469181027945066       -0.215935995209869        2.634904977430736
Se          3.408873584092618        5.835243377762048       11.920280939195653       -0.424260750332203       -0.021155560479770       -2.774889265784591
Se         -0.078592123184846        5.830023856424238       11.985782275340732        0.433627540442294       -0.045641472371690       -2.862400143395443
Se          4.962512052962827        2.958225339433399       11.814275494485310        0.320996202395928       -0.440913021613811       -2.196384882597816
Se          1.742762827131673        2.872829148993453       11.736567060369723       -0.468556506708278        0.495307304386473       -1.484721464557294
Mo          1.661470204323684        0.940259389974406       10.112077719992643       -0.031989936929748       -0.331093186129929       -1.502371324311005
Mo          5.081281895340230        0.930206326432487       10.017548721524280       -0.546114125316032       -0.025504069198498       -0.074057831421606
Mo         -0.063522685217591        3.880421583107071       10.096956818140894        0.202300143504215        0.364127248519781       -0.994185615548469
Mo          3.325012507154594        3.854884661896452        9.812761059154766       -0.308178218971139        0.976507473647353        1.734993015158506
