# total energy = -9527.83307993075 eV 

 CRYSTAL
 PRIMVEC
        6.705204922078999        0.000000000000000        0.000000000000000
       -3.352602461039500        5.806875092643465        0.000000000000000
        0.000000000000000        0.000000000000000       20.000050559404965
 PRIMCOORD
12 1
Se          3.334183263118549        5.787694853963858        8.118753980960685       -0.004490176566183        0.075241310735288        2.763590033675449
Se         -0.008239355808251        5.782612308632922        8.131955858931766       -0.107186510450049        0.045990371226495        2.644963394600094
Se          4.987944947292730        2.899095926134686        8.086383933678857        0.085154974732018       -0.077943284254185        2.877747065019097
Se          1.654982031470000        2.900256597106698        8.122894445000069       -0.017913655055869       -0.104369094347654        2.735282432337827
Se          3.327903838709021        5.794416151377750       11.909815156018867       -0.001695900402574        0.000069162705927       -2.720883219762670
Se         -0.016510896600127        5.788529651976657       11.897747798720602       -0.045773884243631       -0.012304276783742       -2.591073048272102
Se          4.987069247529906        2.896916734535011       11.896081555297465        0.075169062704190       -0.054603827773890       -2.630880942075873
Se          1.647462144149888        2.887571690435109       11.904182783884321        0.027218738662531        0.005354324724620       -2.687533425763605
Mo          1.665938336312677        0.947400530616785       10.025474214463742       -0.120258261870190        0.054764007572375       -0.155693735685154
Mo          4.991787700233574        0.952661434398648       10.016571713888696        0.188016887733419        0.060998421302151       -0.111101016761327
Mo         -0.032669099421353        3.854318078293077       10.014831042690925        0.031923088217700       -0.015786066239724       -0.089955997809225
Mo          3.334270430782535        3.858491397836579       10.009468219794247       -0.110164620571792        0.022588951132340       -0.034461796612941
