# total energy = -9529.383427728355 eV 

 CRYSTAL
 PRIMVEC
        6.638793177329500        0.000000000000000        0.000000000000000
       -3.319396588664750        5.749360861396781        0.000000000000000
        0.000000000000000        0.000000000000000       19.999981854470612
 PRIMCOORD
12 1
Se          3.307784675518283        5.765983735633496        8.347512984362593       -0.526532852004994       -0.139340998055608       -0.729469086715390
Se         -0.017467992608189        5.689026845121892        8.369002757877610        0.341729073327210       -0.040085573069201        0.520524181233595
Se          4.997076718197239        2.891975814683969        8.203325699223491        0.336268047773743       -0.300007763696278        1.283093407719593
Se          1.683698859427057        2.807493852105862        8.451183050861136       -1.009686032099402        1.045257003111479       -1.771947240289117
Se          3.295117858135938        5.779105310348488       11.840921636515597        0.208519387718566       -0.453544857086589       -1.756601089996756
Se         -0.025222103039310        5.708176444041899       11.770102974175753       -0.112236930645282        0.691765641788979       -0.606734080063819
Se          4.952256233819136        2.807140004429511       11.541383271630398       -0.757360426265298        0.864370044738850        2.423672817555173
Se          1.687983536543705        2.856359353166914       11.775952414844300        0.401538358886198       -0.218654166685917       -0.787859894026804
Mo          1.599943844701868        0.946474818550288        9.928177109798177        1.069967629520053       -0.974987179669121        3.656057877640263
Mo          4.999349177101839        0.961518323890117       10.058456787110092       -0.522554582306840       -1.370618169293716       -1.435621856889271
Mo          0.013301486010097        3.796717851562929       10.193890159565568        0.438451189237425        0.292966280323736       -3.315544679541036
Mo          3.341888819949542        3.810176676971329        9.892926445785195        0.131896879748192        0.602879223372523        2.520429386263136
