# total energy = -38122.053061761406 eV 

 CRYSTAL
 PRIMVEC
       13.277745107833699        0.000000000000000        0.000000000000000
       -6.638872553916849       11.498859207011680        0.000000000000000
        0.000000000000000        0.000000000000000       20.000015178772852
 PRIMCOORD
48 1
Mo          1.634851577441262        0.943875066480574       10.011597733091053        0.024884947280760       -0.012866577296239       -0.394014536345186
Se          1.661974027373033        2.878389417711513        8.422491970869812       -0.503701445736265       -0.275497169202987       -1.031207717832851
Se          1.607953521401812        2.842443906155586       11.761478399725011        0.348806552160085        0.172731415502763       -0.813056459149881
Mo         -0.024865233263440        3.818589204346238       10.010717418590405        0.038892323559143        0.060701972975261        0.146241070691125
Se         -0.012880740529109        5.758698797365618        8.393157448603075       -0.223217619724922       -0.332262267259477       -0.701186167979139
Se         -0.036627987654470        5.711564130007320       11.732147860781806        0.167331582231864        0.260469064513716       -0.585093352200838
Mo         -1.684584699517163        6.693304669986414       10.004487500585808        0.119398741699510        0.118174381827307       -0.632458235791214
Se         -1.693660038298368        8.627250733726736        8.332567114352498        0.104728020509266       -0.187393909159217       -0.015682964956911
Se         -1.675283639069126        8.592443124926550       11.671558854305740       -0.099064391936208        0.190233693869106        0.011343197992836
Mo         -3.344301510221865        9.568020135626588        9.996026921403098        0.102176456592477        0.033842674695203       -1.132563735040153
Se         -3.369855858456402       11.487117697012822        8.270953065954107        0.141930614316178       -0.012139468997501        0.610679439626810
Se         -3.318525423644027       11.482008420695328       11.609938167034795       -0.175593825930576        0.013843854044296        0.705626722232149
Mo          4.954287854399686        0.943875066480574        9.990237824536083        0.057288317783482       -0.011094572206103       -0.877364663029705
Se          4.924641305122915        2.848995145591790        8.241058222843819        0.354410274002731        0.134442787235500        0.815667672686651
Se          4.984160125343291        2.871839506049819       11.580048635022550       -0.512682570199924       -0.217912660203045        1.026531907535519
Mo          3.294569715920474        3.818589204346238        9.988089485377635        0.174168405701366        0.109167032099689        0.121998385266888
Se          3.273894939013066        5.712933065527936        8.247865722760604        0.259770752583244        0.244460083530355        0.768046192886183
Se          3.315468886720204        5.757329861845000       11.586848168292271       -0.379174122270512       -0.340821987726803        0.951850840429280
Mo          1.634851577441262        6.693304669986414        9.991886920478475        0.047858535617808        0.081110884763540        0.099481167944784
Se          1.633519819606946        8.587947280433038        8.295911243433300        0.048689259420221        0.242683964673324        0.340156843041925
Se          1.636407729167900        8.631746578220250       11.634897672288501       -0.058344270323411       -0.269317005774141        0.389183688457988
Mo         -0.024865233263440        9.568020135626588        9.999736723386226       -0.017489165734364       -0.010511959969561       -0.026010062526616
Se         -0.006134318239819       11.473887751787375        8.361221816069714       -0.099226885728571        0.120890239309475       -0.345102876402190
Se         -0.043373082169250       11.495238365920773       11.700208244924912        0.085884397024635       -0.102222736470048       -0.307819035699096
Mo          8.273725459132622        0.943875066480574       10.006696917371753        0.011626019466885       -0.038358819414913        0.791297460488661
Se          8.302502316104830        2.863813109132133        8.405901428357573       -0.470769456187501       -0.106375841261251       -0.857668204245599
Se          8.245170340503716        2.857021542509476       11.744887857212772        0.349357539813619        0.064125912584277       -0.699926069757033
Mo          6.614007320653410        3.818589204346238       10.011597733091053        0.182992178581282        0.076676501160874       -0.141217647091142
Se          6.641136409457735        5.753095588930113        8.422498609742366       -0.480246032451609       -0.303988090277879       -1.062593188139426
Se          6.587099970192384        5.717168666217336       11.761487694146586        0.318169787428449        0.202049203723604       -0.842287858265921
Mo          4.954287854399686        6.693304669986414       10.010717418590405        0.119584889651521        0.113138874037069       -0.135729367831995
Se          4.966290935977168        8.633414263005793        8.393199937387418       -0.226776799420621       -0.324893739418762       -0.706833855705479
Se          4.942509166714527        8.586278267872984       11.732187694017130        0.166944631033278        0.260406586678994       -0.592742130411293
Mo          3.294569715920474        9.568020135626588       10.004496795007384       -0.007806129794199        0.031732055167501       -0.046959420440761
Se          3.285512965982420       11.501978149337509        8.332625536430973        0.019380727174894       -0.192416304317475       -0.013839997387832
Se          3.303852187525360       11.467147968370639       11.671607981962639       -0.019213862505204        0.197793768980882        0.006271180521403
Mo         11.593157752767514        0.943875066480574        9.997269718345191       -0.019369671426363       -0.020823630913409       -0.640135553259505
Se         11.569398555671556        2.865484777241209        8.278931662989402        0.336099383331037       -0.005615291812039        0.498594718356653
Se         11.617147982628348        2.855348546625889       11.617918091844603       -0.405288057411233       -0.005989901709939        0.592195770745516
Mo          9.933443597611834        3.818589204346238        9.990243135634126        0.137450465056802        0.024766419372091        0.121059160862612
Se          9.903794392786041        5.723722561202563        8.241071500588927        0.299051570003559        0.109030763571284        0.832335627704548
Se          9.963314540780926        5.746541693944885       11.580057929444125       -0.437336872629669       -0.179482364088326        1.030752889480493
Mo          8.273725459132622        6.693304669986414        9.988089485377635        0.169444001532583        0.106872064392993        0.131628713568707
Se          8.253036076705595        8.587652514491644        8.247840495044899        0.158999147385501        0.187411906889384        0.785425315356099
Se          8.294637907677460        8.632040016387132       11.586828251674609       -0.235509040987117       -0.257201190936288        0.948640045367525
Mo          6.614007320653410        9.568020135626588        9.991881609380432        0.046713108647907        0.080776641203300        0.060929772817086
Se          6.612654318426921       11.462658762749681        8.295856804678358        0.046858118930965        0.276098807611419        0.381258516534257
Se          6.615582061223199       11.506468682732979       11.634848544631600       -0.068080271012352       -0.306445294666508        0.434296798894067
