# total energy = -9506.194398947868 eV 

 CRYSTAL
 PRIMVEC
        7.568240097473099        0.000000000000000        0.000000000000000
       -3.784120048736550        6.554285130414141        0.000000000000000
        0.000000000000000        0.000000000000000       20.000020487584848
 PRIMCOORD
12 1
Se          3.749999395081102        6.525084589646060        7.644960860989203       -0.010379290987189        0.003690306015485        3.920029300444437
Se         -0.013344320939865        6.537934704507560        7.609894177321572        0.015887881970381        0.039223996015074        3.828163229243652
Se          5.662436149087813        3.251108576095773        7.611713582241005       -0.030933213058526       -0.030691015032567        3.836573311440163
Se          1.864821171433459        3.266600763575300        7.624500123885685        0.033455723496617       -0.009088596623799        3.855180907549178
Se          3.739525707610209        6.541248836846243       12.364495708349175        0.034417059397955        0.001312034529159       -3.878007428719719
Se         -0.015443750742904        6.528148970061527       12.382470278580673       -0.026356390277111       -0.039969873375272       -3.858531313574942
Se          5.649005550210838        3.270059449299845       12.390499424500083        0.050014149470927        0.026398813498219       -3.837302219511918
Se          1.865731630717185        3.266311656803577       12.385714026286450       -0.043720343231600        0.006833223923469       -3.873158583102355
Mo          1.872412873075235        1.072179708600848       10.003830691393629       -0.058803469553095        0.001742180280145        0.001570173401837
Mo          5.663487377637352        1.075029907821557        9.981633043187740        0.048769477874678       -0.057545428214437       -0.071940784133129
Mo         -0.012726752547911        4.344198575261929       10.031131603897244        0.030298664514931        0.003465077277969        0.111350670989783
Mo          3.758648379864494        4.365569014825165        9.991628417884474       -0.042650249617969        0.054629281706555       -0.033927006916556
