# total energy = -38122.76488235985 eV 

 CRYSTAL
 PRIMVEC
       53.110927513609894        0.000000000000000        0.000000000000000
       -1.659716484800309        2.874735173529163        0.000000000000000
        0.000000000000000        0.000000000000000       19.999981973800079
 PRIMCOORD
48 1
Mo          1.634849948538437        0.943876781586372       10.083157388293600        0.080555526232679        0.049689676107063       -1.011104767457407
Se          1.614359752703686        2.832363275558805        8.383501486003055        0.063662342477267        0.153468702015677        0.281234331359298
Se          1.655568521361496        2.888464348291431       11.722489899114187       -0.067659381236880       -0.160692990904627        0.309396408193000
Mo          4.954282918139056        0.943876781586372       10.055778705160334        0.005628404444018        0.014759167178493       -0.676728281124194
Se          4.932337482890431        2.824646257791077        8.347401988572056        0.028809995119707        0.188322592035823        0.331161320394132
Se          4.976451419283236        2.896181366059158       11.686390401683186       -0.031432521515439       -0.201781294654550        0.357352388664139
Mo          8.273715887739673        0.943876781586372       10.017777836524347       -0.003811147918034        0.013552033705163       -0.716945237623613
Se          8.254521598536254        2.823738060930594        8.308083968933731       -0.000920455342816        0.188694630829414        0.322023615678021
Se          8.293138553931401        2.897094874012392       11.647067070952108        0.005139123293912       -0.202627959303682        0.347011150020732
Mo         11.593148857340292        0.943876781586372        9.976399112898493       -0.003221079478994        0.012266738660823       -0.632858813842640
Se         11.580380990366020        2.829808639945400        8.273036067867499       -0.030492525779871        0.154769166575443        0.255885299750665
Se         11.606150412395623        2.891018983904836       11.612019169885878        0.038048487124752       -0.164335988600817        0.273713851253888
Mo         14.912587138033661        0.943876781586372        9.939508262647541       -0.000624778347219        0.005035507790237       -0.433036443561530
Se         14.908688795954165        2.841705487708449        8.248929017869072       -0.056374547311871        0.090935845661592        0.140497994994902
Se         14.916708546008717        2.879122136141787       11.587906808794699        0.062264947285031       -0.094535391694950        0.148810375227650
Mo         18.232020107634280        0.943876781586372        9.914131861481538       -0.001083977576903       -0.001000930907705       -0.151938380730638
Se         18.237756087805753        2.857166078707661        8.240346291982872       -0.072709801432113        0.008107206108847       -0.005321414589458
Se         18.226507193358366        2.863661545142575       11.579329394001251        0.073122977894656       -0.008296953606891       -0.001069065171907
Mo         21.551447766142150        0.943876781586372        9.905097692711472        0.000242712246821        0.000840751109220        0.161125450649492
Se         21.565755850014313        2.873242756466030        8.248929017869072       -0.075690996879027       -0.078883794210615       -0.154902349778678
Se         21.537368059258291        2.847584867384205       11.587906808794699        0.070306076013123        0.077057538819548       -0.146013527959730
Mo         24.870886046835516        0.943876781586372        9.914131861481538        0.003485903222877        0.005816352169045        0.442070275663535
Se         24.891057577105187        2.886876331558774        8.273036067867499       -0.062319197585963       -0.152813841748037       -0.278446997177324
Se         24.850937582461405        2.833951292291462       11.612019169885878        0.055575448092466        0.145495450441358       -0.259914991535010
Mo         28.190319016436138        0.943876781586372        9.939508262647541        0.000461770333994        0.011603136638530        0.640793755962747
Se         28.212535317415078        2.895474990723228        8.308083968933731       -0.035148281463589       -0.198156808909389       -0.349284006230367
Se         28.168325781352745        2.825352633127008       11.647067070952108        0.032259902882250        0.185411587736560       -0.323831873338921
Mo         31.509757297129504        0.943876781586372        9.976399112898493       -0.003442451560045        0.015243049009548        0.716964520905934
Se         31.529817294451398        2.897402917391971        8.347401988572056       -0.000467426763475       -0.205192378742019       -0.352280628303137
Se         31.489915054610421        2.823430017551015       11.686390401683186        0.003723216150647        0.191050276597816       -0.326764217803953
Mo         34.829184955637373        0.943876781586372       10.017777836524347       -0.000720680537965        0.012606638650544        0.652640890400253
Se         34.843285906892234        2.892283023979660        8.383501486003055        0.033727489222136       -0.171967797522829       -0.287829213913272
Se         34.815307070278067        2.828544599870576       11.722489899114187       -0.026358190050128        0.161602390498912       -0.268725137562085
Mo         38.148612614145236        0.943876781586372       10.055778705160334       -0.001663504488273        0.005303416859291        0.467147541546650
Se         38.154104284050142        2.881103173738045        8.409515218299223        0.059584056821472       -0.105893759203212       -0.168808938768126
Se         38.143365254506897        2.839724450112191       11.748498320317601       -0.053087904672984        0.101479430214160       -0.159386612804949
Mo         41.468056205931362        0.943876781586372       10.083157388293600       -0.002261286240242        0.000484910272780        0.194524866961731
Se         41.463892309214295        2.865982492674920        8.420493247016287        0.072296110748708       -0.021075599135744       -0.020680677513798
Se         41.472432546358483        2.854845131175316       11.759476349034665       -0.070891259353974        0.020784293017473       -0.016443754722104
Mo         44.787483864439231        0.943876781586372       10.094709015027810        0.002316050762035        0.000522191285268       -0.117564772995514
Se         44.774492931569398        2.849799593061523        8.414337690517458        0.071153511993548        0.065441803769901        0.126813292307366
Se         44.800703174297368        2.871028030788713       11.753320792535838       -0.076021383782803       -0.066706787090195        0.134819454016848
Mo         48.106922145132593        0.943876781586372       10.088240104056652        0.003422911167293        0.003719616604614       -0.401544529536540
Se         48.087595078610391        2.835640219786395        8.392227611393542        0.062208640100652        0.139646445247581        0.248151417987564
Se         48.126472277550356        2.885187404063841       11.731210713411921       -0.067593560966556       -0.145284105667113        0.266505760322089
Mo         51.426355114733212        0.943876781586372       10.064956273434685       -0.000928425766175        0.011812938750189       -0.626976384292840
Se         51.404393746206338        2.826197096874475        8.358369395103617        0.186074418427560        0.271824860917668        0.484016299811121
Se         51.448544860248404        2.894630526975761       11.697347186029242       -0.269145513116695       -0.328102220486639        0.585739984934688
