# total energy = -9469.22390008817 eV 

 CRYSTAL
 PRIMVEC
        5.443805113637699        0.000000000000000        0.000000000000000
       -2.721902556818850        4.714471323538089        0.000000000000000
        0.000000000000000        0.000000000000000       19.999957500357748
 PRIMCOORD
12 1
Se          2.669329008933894        4.719840004141158        8.795399140517159        7.127473699063811       -1.498194822470585      -26.169443740101748
Se         -0.049767266348876        4.700529194261551        8.602554521888589       -0.973542733268021        0.688011572386617      -16.118073967656446
Se          4.035893939176502        2.362410542910068        8.742464123972656       -0.944590298969566       -0.797963048411148      -27.754578140805606
Se          1.314067051248732        2.374809897817401        8.852866124818764        5.004590003804586       -4.057197715358482      -28.588487798568455
Se          2.718574758752883        4.664451464631940       11.494074069677138       -2.767472144072426        0.991372313212968       19.213239012409431
Se         -0.062940185962856        4.687195682396718       11.494758355979922        6.023192368539047       -2.432784297007327       18.039111833542950
Se          4.126843591210047        2.301583642092326       11.418602788723200       -1.312402454185782       -1.226500573651842       22.401977341624736
Se          1.315520547214073        2.316425087973637       11.297706764759534        0.811406324404017        6.502011438098861       29.882222749914810
Mo          1.379336641419714        0.769234159680018       10.169633847784370       -0.815850221092629       -8.403298852010762      -11.475568469997711
Mo          4.091314052755379        0.771676795034507        9.996826242637567       -8.421713101075698       -3.302246413831225       11.068689670350164
Mo         -0.047411187495693        3.086222137102405       10.018798528837230       -2.803343162957427       11.896782204612675        5.647876959616296
Mo          2.755936682008801        3.129165593741336       10.087078543236055       -0.927748280189913        1.640007937319817        3.853034806782003
