# total energy = -9525.438121826375 eV 

 CRYSTAL
 PRIMVEC
        6.638793177329500        0.000000000000000        0.000000000000000
       -3.319396588664750        5.749360861396781        0.000000000000000
        0.000000000000000        0.000000000000000       19.999981854470612
 PRIMCOORD
12 1
Se          3.302949642447234        5.741302030358820        8.562339020546435       -0.485816587048662       -0.381553165088131       -5.267227537692968
Se         -0.021975069296278        5.723996024304157        8.571393670560994        0.383981830218924        0.018111630087704       -5.417880623379268
Se          4.962950665748496        2.852989501750101        8.599966372516903       -0.315018127765813        0.190119793948193       -5.768459180629488
Se          1.622193760035687        2.862217424266590        8.598663841295510        0.137433752878790        0.299457033153174       -5.952886292525925
Se          3.289322191692130        5.731787311977071       11.428545031753963        0.417669724434693        0.254451651987665        5.516976125677620
Se         -0.007832448190613        5.728067596159813       11.425834412499659       -0.495728451272376        0.364325480662047        5.524270348603790
Se          4.962147371774038        2.867666545706542       11.401738912662543       -0.236907207510645       -0.077775905363634        6.535374344729904
Se          1.633354899125414        2.855525520743841       11.404051204326207       -0.119775922701720       -0.492173128233142        6.040404112118412
Mo          1.634055291805622        0.933173332540191        9.961267510511259        0.168274149071742       -0.112218932915115        1.146052776689732
Mo          4.961055290296367        0.949549243670709       10.018627347442704       -0.050741000659235       -0.534300158124119       -0.740099574593621
Mo         -0.032833479417119        3.821006540281506       10.019111979344650        0.339988692820081        0.193138527518026       -0.588520120024595
Mo          3.285592517685106        3.819227343709982       10.025414185707890        0.256638890423792        0.278417429477764       -1.028004378973593
