# total energy = -9523.527961003085 eV 

 CRYSTAL
 PRIMVEC
        6.373252033781299        0.000000000000000        0.000000000000000
       -3.186626016890650        5.519395592555450        0.000000000000000
        0.000000000000000        0.000000000000000       20.000010552493670
 PRIMCOORD
12 1
Se          3.153492116892224        5.504073020015833        7.883917984502955        0.021360991714103        0.023060748773141        3.599263211884212
Se         -0.027807773273795        5.498894115413182        7.906958565255482        0.008160427968054        0.041330501775881        3.584219680569085
Se          4.762721047641511        2.754796128138544        7.895366894456440       -0.035248297421230       -0.046483766143496        3.588527822950153
Se          1.575709449002818        2.751399184804538        7.877359908160194       -0.028641844897863       -0.063919710018652        3.584719246136429
Se          3.163730746284494        5.515922170197039       12.087199429895568       -0.055625841736933       -0.086629245943109       -3.457036920572437
Se         -0.037848194527814        5.515257440009916       12.069061791932629        0.076192105108956       -0.048506196793381       -3.423557028695310
Se          4.762051218852760        2.749394797039914       12.097412566279703       -0.074716805456141        0.009630071191388       -3.478801832773569
Se          1.557770656503333        2.745094763892722       12.109282748192621        0.065596841359766        0.024979306808921       -3.484724885771460
Mo          1.561962981691155        0.900342941560250       10.019434135071817       -0.013293380611623        0.090702389390285       -0.128584526066210
Mo          4.751905638940184        0.911201051050204       10.004080333597235        0.020784293017473       -0.012150524746032       -0.108501887414811
Mo         -0.018655783353285        3.658743143723898       10.013329834273861       -0.033634415246131        0.032469962104339       -0.125381701427814
Mo          3.153449416103598        3.661215328187801       10.035420163148151        0.049065669091137        0.035516206490284       -0.150140921707837
