# total energy = -38122.84814310945 eV 

 CRYSTAL
 PRIMVEC
       53.110927513609894        0.000000000000000        0.000000000000000
       -1.659716484800309        2.874735173529163        0.000000000000000
        0.000000000000000        0.000000000000000       19.999981973800079
 PRIMCOORD
48 1
Mo          1.634849948538437        0.943876781586372       10.062656570273347        0.154040001393257        0.088935012287906       -1.045335678903351
Se          1.653104174324865        2.870889942377178        8.404119148063840        0.006078347698187        0.003509300272093        0.042109546381673
Se          1.616824099740318        2.849942992565810       11.743096938989467       -0.011024123948022       -0.006364768718270        0.048629095579377
Mo          4.954282918139056        0.943876781586372       10.093997328599128        0.006288149809846        0.003630399285073       -0.072951228126779
Se          4.948605359987851        2.857070479038136        8.421316466392748        0.011459154797196        0.006615965609312        0.034713764835276
Se          4.960188853278569        2.863757144812099       11.760299568411124       -0.011862561063363       -0.006848907659757        0.034984759229502
Mo          8.273715887739673        0.943876781586372       10.082196080505604        0.001954810606544        0.001128714791889       -0.030756063971599
Se          8.246767403119268        2.844791232596990        8.396832328808973        0.039745930189911        0.022947363073090        0.023692211991564
Se          8.300892749348389        2.876041702345998       11.735820741920103       -0.036409665237850       -0.021021091724381        0.014880523301903
Mo         11.593148857340292        0.943876781586372       10.032670140599162        0.002164869828634        0.001249813804868       -0.013786775528624
Se         11.557346781103368        2.839676650277429        8.341910318667150        0.050259432822058        0.029017226127056        0.010240965575335
Se         11.629179310565524        2.881150973572807       11.680898731778278       -0.049035330060285       -0.028310429552363       -0.006365540049563
Mo         14.912587138033661        0.943876781586372        9.968145674762878       -0.001607197303894       -0.000927911545314        0.015702505349664
Se         14.884417102080443        2.844084857261058        8.281751571072483        0.036219146408513        0.020911048459933       -0.011731434743576
Se         14.940980239882439        2.876742766589177       11.620739984183613       -0.038789993607623       -0.022395346977831       -0.021131906320123
Mo         18.232020107634280        0.943876781586372        9.918237336178338       -0.004399673694488       -0.002540251057827        0.031237374698345
Se         18.224457111556340        2.855987016116859        8.243973768332053        0.007365699625975        0.004252606527982       -0.026728429070702
Se         18.239795547422275        2.864840607733377       11.582956870350431       -0.009164958421792       -0.005291332669037       -0.027261161883639
Mo         21.551447766142150        0.943876781586372        9.905857178974918        0.000825324483363        0.000476425628558        0.036395267053716
Se         21.568028997711895        2.869918012403678        8.245907006093548       -0.023931067581920       -0.013816600338615       -0.023639504353218
Se         21.535094911560705        2.850909611446558       11.584890108111926        0.025970210409818        0.014993909001954       -0.026987596385104
Mo         24.870886046835516        0.943876781586372        9.936688072396567        0.005008511194987        0.002891721016941        0.025322292123813
Se         24.904037887789514        2.879488601541631        8.286674954052994       -0.045037005748517       -0.026002092103256       -0.005519646731724
Se         24.837957271777078        2.841339022308605       11.625658056071373        0.048052653993178        0.027743243941678       -0.019010231043889
Mo         28.190319016436138        0.943876781586372        9.996575954260914       -0.001433904873431       -0.000827895587672        0.001303292774507
Se         28.224888919154747        2.880306509825340        8.347556010261846       -0.047207017785770       -0.027254991233296        0.014489972557284
Se         28.155977490705833        2.840521114024895       11.686539112280224        0.046489422572977        0.026840529218598       -0.000632748770578
Mo         31.509757297129504        0.943876781586372       10.058030608486913       -0.004835475874955       -0.002791705059300       -0.024470228155631
Se         31.529918205213672        2.871989338576709        8.400613826847943       -0.027195598723745       -0.015701476907940        0.024529620665182
Se         31.489814143848147        2.848838285273526       11.739596928866320        0.024255026724923        0.014003519621918        0.020288326996162
Mo         34.829184955637373        0.943876781586372       10.092860754750337       -0.000106700828846       -0.000061449392998       -0.036232001930060
Se         34.825743367534493        2.858361074576717        8.421497043546292        0.007172095471466        0.004140763490517        0.027958702482817
Se         34.832844298543058        2.862466549273519       11.760480145564671       -0.007430748565006       -0.004290144650901        0.027812663758035
Mo         38.148612614145236        0.943876781586372       10.085058759498587        0.003410055645745        0.001968694569816       -0.031881693438316
Se         38.123204346422725        2.845678185086467        8.400613826847943        0.038457035599538        0.022203285485909        0.024534762873801
Se         38.174254569948808        2.875154749856520       11.739596928866320       -0.035171935623236       -0.020306581836760        0.016624503355065
Mo         41.468056205931362        0.943876781586372       10.038220232524335        0.001102746638362        0.000636605427043       -0.017870974724331
Se         41.432386907013218        2.839756316668699        8.347556010261846        0.049866825193991        0.028790711837385        0.012123271040351
Se         41.503943259652310        2.881076618274288       11.686539112280224       -0.048262198994406       -0.027864342954657       -0.004125336864660
Mo         44.787483864439231        0.943876781586372        9.973844477285089       -0.001512066444441       -0.000872889913089        0.011384078551357
Se         44.757986055298169        2.843314748812111        8.286674954052994        0.037589545005498        0.021702434366410       -0.009163672869637
Se         44.817215361661347        2.877512875038124       11.625658056071373       -0.039541270286871       -0.022829092274851       -0.019646322250069
Mo         48.106922145132593        0.943876781586372        9.921466480571166       -0.003575891873710       -0.002064596760562        0.041706397225936
Se         48.097176289933849        2.854722976042035        8.245907006093548        0.019404381334542        0.011203072807966       -0.018311147782124
Se         48.116896377319655        2.866104647808201       11.584890108111926       -0.020415339549053       -0.011786713486232       -0.019996506657029
Mo         51.426355114733212        0.943876781586372        9.905134870360731       -0.000543274340606       -0.000313674725764        0.004660640781906
Se         51.440891575593689        2.868744260905627        8.243973768332053        0.320433130552138        0.185002267930481        0.430601093559532
Se         51.412031097582798        2.852083362944608       11.582956870350431       -0.475120278900107       -0.274310861674564        0.537609940701792
