# total energy = -9251.907455904533 eV 

 CRYSTAL
 PRIMVEC
        3.850505334623600        0.000000000000000        0.000000000000000
       -1.925252667311800        3.334633882417403        0.000000000000000
        0.000000000000000        0.000000000000000       20.000006021201802
 PRIMCOORD
12 1
Se          1.908130625240329        3.319663117676386        8.325654661600645        0.104863517706379        1.371791621300591      -35.998548744079244
Se         -0.015266868601249        3.324812398460379        8.346007277647864        0.065408379413877       -0.208765442400989      -36.129657066135699
Se          2.869950278028625        1.653122823393678        8.333681425021201        1.149326049586210       -0.182908103470360      -35.196091662445454
Se          0.950380186489663        1.665080567710352        8.342090928672018       -1.253070108476214       -0.834271669249633      -36.499695026352690
Se          1.906642789979031        3.321859060868722       11.692723275704250        1.820712604396900        0.474080010096467       34.128451653656818
Se         -0.007934736343059        3.324035751534385       11.665264552061982       -1.664660970991857        0.592262362347133       34.793969662880990
Se          2.879196881539190        1.659424945474857       11.657582023818341       -0.430600579338670        0.375457848101500       34.956150037628682
Se          0.953620001678215        1.657521255637419       11.633797067315838        0.108213409511280       -1.332285832253191       34.781437329144985
Mo          0.952376673505665        0.553222509103646        9.971202385849518       -1.889832115771169       -1.701760463515957        2.371251600229654
Mo          2.872349527902629        0.549993475330031       10.008508776885085        1.684484185218423        0.719406041558275        0.840768849839844
Mo         -0.010188052064881        2.220230254733977       10.000406543559972       -2.315693892756923       -0.479337661299048        0.277733515731426
Mo          1.905535769695326        2.220276075747459        9.985960602696064        2.620849264391334        1.206331288785212        1.674230364121540
