# total energy = -38121.75618747046 eV 

 CRYSTAL
 PRIMVEC
       13.277745107833699        0.000000000000000        0.000000000000000
       -6.638872553916849       11.498859207011680        0.000000000000000
        0.000000000000000        0.000000000000000       20.000015178772852
 PRIMCOORD
48 1
Mo          1.621830092814009        0.891090718578892       10.000007589386426        0.725846914964108        1.272026603440033        0.000000000000000
Se          1.672041213713793        2.796245319827388        8.330514374958828       -0.240519094844690        0.474355632478449        0.007627952265548
Se          1.672041213713793        2.796245319827388       11.669498148265003       -0.240519094844690        0.474355632478449       -0.007627952265548
Mo          0.027384021510396        3.803497719256675       10.000007589386426       -1.183203948410454       -0.258205978500457        0.000000000000000
Se         -0.033278012563764        5.684781590350308        8.283872311944029        0.084784221490582        0.224671064991106        0.338789015549249
Se         -0.033278012563764        5.684781590350308       11.716138883505291        0.084784221490582        0.224671064991106       -0.338789015549249
Mo         -1.616067551437209        6.730060123993919       10.000007589386426       -1.452702217038418       -0.652669172547658        0.000000000000000
Se         -1.730601380737383        8.620541489123749        8.280976435736010        0.275908545892513       -0.036596070300292        0.335020547962754
Se         -1.730601380737383        8.620541489123749       11.719038743036842        0.275908545892513       -0.036596070300292       -0.335020547962754
Mo         -3.323780755157708        9.622149519107694       10.000007589386426       -0.199571687610930       -0.313347681295903        0.000000000000000
Se         -3.384660544251636       11.546268723693711        8.324543372983834        0.880379282832642       -0.333909059569739       -0.004153619012064
Se         -3.384660544251636       11.546268723693711       11.675467822465485        0.880379282832642       -0.333909059569739        0.004153619012064
Mo          4.999510526462457        0.997449440216172       10.000007589386426       -0.968027714524054       -0.477151965525507        0.000000000000000
Se          4.905834706952179        2.907248596703389        8.303844696135231        0.310613826083568       -0.193554017974448        0.177609314598825
Se          4.905834706952179        2.907248596703389       11.696167827088598        0.310613826083568       -0.193554017974448       -0.177609314598825
Mo          3.272174143247091        3.857392086649372       10.000007589386426        0.371215525990757       -0.443483611702490        0.000000000000000
Se          3.278350950271255        5.800580788759258        8.357153514968674       -0.006877446917593       -0.304980022320500       -0.178506630002855
Se          3.278350950271255        5.800580788759258       11.642857680480645       -0.006877446917593       -0.304980022320500        0.178506630002855
Mo          1.565843152792317        6.680943089291021       10.000007589386426        0.686735533317792        0.096710803051253        0.000000000000000
Se          1.666184400346727        8.632527309632589        8.385477600832704       -0.219203354566435       -0.167047732316090       -0.394583007508026
Se          1.666184400346727        8.632527309632589       11.614538905714658       -0.219203354566435       -0.167047732316090        0.394583007508026
Mo         -0.075762813585299        9.516088218960830       10.000007589386426        0.280130042058350        0.771015304142842        0.000000000000000
Se          0.024736439135894       11.443197571745129        8.362250841315571       -0.957948471409789       -0.039107524989852       -0.692325628307597
Se          0.024736439135894       11.443197571745129       11.637768320780813       -0.957948471409789       -0.039107524989852        0.692325628307597
Mo          8.207627516211314        0.902929156117037       10.000007589386426        2.104530895587287        0.354196872345039        0.000000000000000
Se          8.321729818795482        2.842651038979267        8.377175026816776       -0.310860394986853        0.076210359949554       -0.347238949862557
Se          8.321729818795482        2.842651038979267       11.622838824181565       -0.310860394986853        0.076210359949554        0.347238949862557
Mo          6.600940691692790        3.765795562022981       10.000007589386426        0.054760408026341        0.628270678202263        0.000000000000000
Se          6.651215545769091        5.670971407663650        8.330548897096106       -0.149714889723746        0.241601529759007        0.004924178973634
Se          6.651215545769091        5.670971407663650       11.669468937225766       -0.149714889723746        0.241601529759007       -0.004924178973634
Mo          5.006507898134285        6.678178662759570       10.000007589386426       -0.506737148594540        0.195358676089315        0.000000000000000
Se          4.945906941687621        8.559469172725757        8.283889573012669        0.089150985049908        0.249701279665355        0.288490244831255
Se          4.945906941687621        8.559469172725757       11.716128261309205        0.089150985049908        0.249701279665355       -0.288490244831255
Mo          3.363098813971025        9.604749034143879       10.000007589386426       -0.447148206674880       -0.535224470123400        0.000000000000000
Se          3.248563656896341       11.495218449303112        8.280960502441880        0.588119541973168        0.113105449681045        0.737242306374427
Se          3.248563656896341       11.495218449303112       11.719058659654504        0.588119541973168        0.113105449681045       -0.737242306374427
Mo         11.663578929495932        0.961940766474293       10.000007589386426       -2.065773297893964        0.131926704558183        0.000000000000000
Se         11.558048739153380        2.844666600686637        8.275548493535926        0.619409881420290        0.291778687243159        0.700508939104006
Se         11.558048739153380        2.844666600686637       11.724468013011435        0.619409881420290        0.291778687243159       -0.700508939104006
Mo          9.978699464037375        3.872155611434772       10.000007589386426       -0.257662447049420       -0.500290104538365        0.000000000000000
Se          9.884981155742752        5.781933523529816        8.303814157321483        0.606291850122577        0.099858863167856        0.529137380670560
Se          9.884981155742752        5.781933523529816       11.696198365902346        0.606291850122577        0.099858863167856       -0.529137380670560
Mo          8.251371047469073        6.732130124456231       10.000007589386426        0.245160709454705       -0.336873285728209        0.000000000000000
Se          8.257474826895145        8.675305548821008        8.357124303929435       -0.020079296215796       -0.218545923194485       -0.154978454466240
Se          8.257474826895145        8.675305548821008       11.642888219294393       -0.020079296215796       -0.218545923194485        0.154978454466240
Mo          6.545008190426040        9.555690421519454       10.000007589386426        0.567522682459861        0.295390060356341        0.000000000000000
Se          6.645313588068659       11.507278625184556        8.385476273058194       -0.526993593897264       -0.591367875157843       -1.158941208372603
Se          6.645313588068659       11.507278625184556       11.614538905714658       -0.526993593897264       -0.591367875157843        1.158941208372603
