# total energy = -9521.268600823116 eV 

 CRYSTAL
 PRIMVEC
        7.568240097473099        0.000000000000000        0.000000000000000
       -3.784120048736550        6.554285130414141        0.000000000000000
        0.000000000000000        0.000000000000000       20.000020487584848
 PRIMCOORD
12 1
Se          3.708960613152554        6.541609841898892        8.863000990516621        1.724739451172054       -0.147982993860839       -5.601348970478676
Se         -0.072271395162800        6.560019585935996        8.659248830612452        0.500912568891705       -0.012499423600837       -3.297648250884041
Se          5.610970602776977        3.310845452009138        8.773729814446879        0.311381557830397       -0.393191782966133       -3.662452985389386
Se          1.827912378126102        3.302619531847194        8.595213194323721       -0.138947104875386       -0.757500037229306       -1.990474908643004
Se          3.704365934589378        6.583993500092761       11.243418357302563        0.875596000375171       -0.747736525724252        5.197741901065021
Se         -0.070370253250315        6.496265488178892       11.222644295059007        1.179260388620479        0.101085537033938        4.199389039651647
Se          5.656632065757060        3.252441343176938       11.247798097846971       -0.088484297702444        0.052437929503532        3.422554298014589
Se          1.909507088264980        3.246577470749416       11.368475199849199        0.161353764712179        0.146795143669831        2.112295630602103
Mo          1.924841099526470        1.030877551916908       10.139795638392753       -1.055484084723543        1.449725906689693       -0.520264499698332
Mo          5.738961652009403        1.038593372696282        9.934614594758180       -3.479202153714565        1.149388013200070       -0.241912376270030
Mo          0.015539110568132        4.367568543858916       10.038452362543529        0.250631762314979       -0.314203344810119       -0.137339136240199
Mo          3.690121749901924        4.366749660280369        9.840880427502954       -0.241757852901027       -0.526318421905578        0.519460001159876
