# total energy = -9521.59608371694 eV 

 CRYSTAL
 PRIMVEC
        7.169928382150800        0.000000000000000        0.000000000000000
       -3.584964191075400        6.209337227152147        0.000000000000000
        0.000000000000000        0.000000000000000       20.000070686449963
 PRIMCOORD
12 1
Se          3.594971977111205        6.195931612056039        8.059085540678085        0.072848126843966        0.055955971530278        3.532059430330983
Se          0.036199534415803        6.155678200132967        8.097678397187849       -0.182348116951741        0.062091911964999        3.112317652933231
Se          5.307645599827185        3.061639722376271        7.884454765002419        0.356474613652862        0.215261337439046        3.710512581364199
Se          1.747542418424055        3.042078723764088        7.952835805968668        0.001385568112412        0.055757739388012        3.492619461553908
Se          3.524949022545445        6.194394379410906       11.996530580948400        0.153995778399133        0.004936777384751       -3.140697245191520
Se         -0.001297757037169        6.222410874564160       12.034269498987852       -0.027602604535946        0.037358402728071       -3.402952455869074
Se          5.405257004821786        3.043924980322491       11.983907922031623       -0.222493596751355        0.286115572890962       -3.222314123283179
Se          1.851552984499726        3.054297715712949       11.966716584749740        0.016557140422155        0.106823213411111       -3.311140377858791
Mo          1.840588013024902        0.994725750040397        9.997981158743494       -0.232299017256654        0.053369440594879        0.012239484955142
Mo          5.284078045235056        1.064495606134268       10.146719889045537        0.384758046609974       -0.404246760165869       -0.552897469815896
Mo          0.027734716967836        4.096099781524872        9.813863133832568       -0.201935560913122       -0.089077708577086        0.501849993522964
Mo          3.602723386685149        4.166446816853505       10.180669499935021       -0.119340377631684       -0.384346155699586       -0.731596932641967
