# total energy = -9525.01790031762 eV 

 CRYSTAL
 PRIMVEC
        7.037104892651799        0.000000000000000        0.000000000000000
       -3.518552446325899        6.094308764658774        0.000000000000000
        0.000000000000000        0.000000000000000       19.999937665154004
 PRIMCOORD
12 1
Se          3.505329726232607        6.089153381614417        7.907642620186095       -0.102223250690910       -0.097505788503763        3.347822837263883
Se         -0.047818535166548        6.051784947213458        8.185856673248553        0.114478419382340        0.300486760429145        2.069607585750783
Se          5.257034024531062        3.029207653721657        8.091119648631228        0.010721504970789       -0.025415880320681        2.657603200496232
Se          1.706872310448350        3.050072669728370        8.039398335091215        0.171898120596040        0.036708684669049        3.159640370412930
Se          3.562241608341439        6.019752045742107       11.756293693947974       -0.426613567885864        0.130485600592685       -2.188235253267862
Se         -0.092234630117498        6.081043118225636       11.736923359020460        0.931048549681641       -0.263559789004216       -1.789320449219121
Se          5.224945529931060        3.033820475978791       11.986589284954407        0.145014911045904       -0.057025293812616       -3.411858761197327
Se          1.745174568668565        3.006483434602306       11.941367441493249        0.045507517837163        0.146345971746954       -3.009672741135556
Mo          1.772950021679861        1.007509344585851       10.166544142490963       -0.443900387711067        0.219024405706491       -2.023404327087459
Mo          5.324089893342653        0.976620676370045        9.821759077144019       -0.284385219690641        0.054119431721972        0.747199422033989
Mo         -0.031955493317532        4.063843630247702        9.871778115010500       -0.013034727518083       -0.454725508185530        0.788081266107856
Mo          3.537475221382241        4.010015407502830       10.008375358081764       -0.148512384238174        0.011061662070941       -0.347462893047918
