# total energy = -9527.00660928487 eV 

 CRYSTAL
 PRIMVEC
        6.605613763817199        0.000000000000000        0.000000000000000
       -3.302806881908599        5.720626659809790        0.000000000000000
        0.000000000000000        0.000000000000000       20.000021566736013
 PRIMCOORD
12 1
Se          3.299839640205893        5.742138501593036        8.580830997087581       -0.603332251951864       -0.328678404962407       -2.580398080289316
Se         -0.064721803657881        5.661832073382182        8.275442243242914        0.239224543824835        0.932843437600132        0.560790502935758
Se          4.900020509790049        2.798926040074989        8.478102473516826        0.057541314447541       -0.366750289136376       -2.223652215131798
Se          1.546594809609318        2.902501403330266        8.466166129445607        2.786873182971365       -2.244809318274154       -3.338799032468685
Se          3.236100091314691        5.722422726192172       11.527340980996527        0.733986002766393       -1.458242689715049        5.708027173606729
Se         -0.001857498590385        5.719287041338488       11.461852926142042       -0.557730374586541       -2.173865351281834        5.013517392188175
Se          4.947755317092897        2.879270120284297       11.494055293240653        1.275806898106352        1.145955588946832        4.712503555375575
Se          1.700296212349945        2.794468571907165       11.554524402757387       -1.234179176672288        1.167234562433460        3.798909204409688
Mo          1.600465571537376        0.917762177819341       10.150092309766061        1.284697262587885        0.755227952350964       -5.189969709847707
Mo          4.940847166218697        0.964000153043309       10.186257384561584       -0.817063525216301       -0.162070588593680       -6.755382712055656
Mo          0.046633651488420        3.767189456241465        9.894721923902393       -2.501152017481486        1.686401714812479        2.531994213447454
Mo          3.291435317814188        3.751326074787658       10.055206631417086       -0.664672115906322        1.046753385819633       -2.237540549280649
