# total energy = -9527.264910197284 eV 

 CRYSTAL
 PRIMVEC
        6.771563749103600        0.000000000000000        0.000000000000000
       -3.385781874551800        5.864343495817446        0.000000000000000
        0.000000000000000        0.000000000000000       19.999962507379962
 PRIMCOORD
12 1
Se          3.301960749839896        5.883100050246088        8.090896632065576        0.235299495985889       -0.154070083313679        2.921069401303580
Se         -0.023362572090782        5.817338686053042        8.029557776157070       -0.144779655001581        0.153425250352846        3.122034370339850
Se          5.068588599092535        2.960396302771361        8.312441883244999       -0.094614581707684        0.346190196414695        1.343411000600578
Se          1.637496837182733        2.865208431150212        8.132847146647647        0.245267410283551        0.104680712189970        2.926223179892056
Se          3.399266089445390        5.855010249502056       11.893437106181457       -0.284570082090497       -0.042671846894169       -2.335771646310134
Se         -0.006501378355514        5.870672876453733       11.999936197889108       -0.101802875136300       -0.148995751848368       -2.836806085546111
Se          5.057905780121949        2.864865112868132       11.671413782601348       -0.061268387254653       -0.460979462308059        0.346782064626752
Se          1.611698533611398        2.898403313804693       11.755436022756600        1.046511959124967       -0.564169962440219        0.183494058142504
Mo          1.677576368700927        0.967330070374198       10.062113736869881       -0.030639078725515       -0.572729425797114       -1.055327247360661
Mo          4.986075063340583        0.998817841807529        9.858021514097398        0.545344336685755       -1.188070791757985        1.171049824118389
Mo          0.031362497503973        3.843222674807745       10.195941505556167       -0.761912566445341        1.538048224820635       -3.240742256311387
Mo          3.365634440929092        3.857615633556465       10.163392630083349       -0.592835975718591        0.989342940581447       -2.545416920605847
