# total energy = -9493.760001822764 eV 

 CRYSTAL
 PRIMVEC
        5.178263970089500        0.000000000000000        0.000000000000000
       -2.589131985044750        4.484506054696759        0.000000000000000
        0.000000000000000        0.000000000000000       19.999998575148734
 PRIMCOORD
12 1
Se          2.571322381772421        4.479993197646826        8.335895807701702       -0.091918007507837       -0.022684081991793       -9.271684704570687
Se         -0.013805251744259        4.477872698551074        8.294227353187186        0.115232010055467       -0.006360140730513       -8.337814882130184
Se          3.871772953470406        2.225029603557465        8.322463390963289       -0.127122339045373        0.073165658226195       -9.143792576895034
Se          1.276155710629516        2.234914391649969        8.305887250168636        0.060945199442944       -0.167531614147146       -8.991504525978300
Se          2.559392179411732        4.474267591175098       11.637570378517090        0.617731207416590       -0.215055649094282        9.226320140133133
Se         -0.025164291589047        4.467295576565769       11.657458536947013       -0.160744927211680       -0.065983792558352        8.914945010063509
Se          3.862047655908181        2.230280881049532       11.637919393508673        0.031602985731162        0.533056257859163        9.411977782552116
Se          1.269799909432628        2.234430741795162       11.708577323206942        0.101517996778803       -0.170942955345046        7.193343591701252
Mo          1.285545456686479        0.735209918473307        9.978507420792907       -0.004900524813986        0.833028026095107        0.709157105559580
Mo          3.862933139047066        0.742409258870923       10.007626870402309       -0.480619871018217       -0.594889259620191       -1.324250874175443
Mo         -0.013732756048677        2.978870397968757        9.972877094378230        0.577760819820456        0.062655240919220        0.735694244469652
Mo          2.568521458790999        2.974481301427709        9.973113741041661       -0.639484806758760       -0.258457432501930        0.877609946380835
