# total energy = -9517.179546231187 eV 

 CRYSTAL
 PRIMVEC
        6.572434350304899        0.000000000000000        0.000000000000000
       -3.286217175152450        5.691892458222800        0.000000000000000
        0.000000000000000        0.000000000000000       20.000068893967864
 PRIMCOORD
12 1
Se          3.251256425112873        5.682570774583763        8.667896647231775       -0.310887391582103       -0.171225776819095       -9.474663876723049
Se         -0.029474739087377        5.677347003762140        8.706655607082391        0.332197732541308       -0.325081944254220      -10.337766881258158
Se          4.916111226223951        2.834600235692469        8.710603011153186        0.219730430949891       -0.192923068976886      -10.313201779353506
Se          1.615559571753487        2.838033675397068        8.697308948192823       -0.058032395370664        0.152194462719868      -10.571725803457053
Se          3.277834035138636        5.667210338263665       11.311372463747681       -0.013662591190473        0.046913654784051        9.512956618757208
Se         -0.025177024265713        5.678781766180812       11.272764012643686       -0.389059247009406        0.196423884604758       10.820714373007805
Se          4.889344987332334        2.840473363027901       11.318280092249852        0.075096814673092       -0.142279256060552       10.123687737580640
Se          1.609435377425873        2.827293003181800       11.268644410792914        0.564419102447814       -0.343893428934982       10.983331835488123
Mo          1.610984500202240        0.936187407508955        9.967703327927913       -0.360273934491071       -0.316563361455847       -0.242776267318036
Mo          4.901147107695177        0.936129570086673       10.014217760311890        0.791191788101539        0.018352028340646       -0.061261188162586
Mo         -0.017334138355494        3.770980872771323       10.023338984703244       -0.718606685228439        0.272136992980847       -0.242146860983060
Mo          3.266547193628857        3.770279594026146        9.987095952721923       -0.132113623841486        0.805946070181843       -0.197147650467894
