# total energy = -38122.33800045372 eV 

 CRYSTAL
 PRIMVEC
       13.277745107833699        0.000000000000000        0.000000000000000
       -6.638872553916849       11.498859207011680        0.000000000000000
        0.000000000000000        0.000000000000000       20.000015178772852
 PRIMCOORD
48 1
Mo          1.634851577441262        0.984548783069401       10.000007589386426        0.003039559514740       -1.119547262362668        0.000000000000000
Se          1.634964438274678        2.835706778287870        8.330514374958828       -0.001521836640818        0.559727608414193       -0.044512500469370
Se          1.634964438274678        2.835706778287870       11.669498148265003       -0.001521836640818        0.559727608414193        0.044512500469370
Mo         -0.024865233263440        3.859264248709576       10.000007589386426        0.002999964508373       -1.119497125828632        0.000000000000000
Se         -0.024753700204534        5.710422243928045        8.330514374958828       -0.001517979984353        0.559736093058415       -0.044510443585923
Se         -0.024753700204534        5.710422243928045       11.669498148265003       -0.001517979984353        0.559736093058415        0.044510443585923
Mo         -1.684584699517163        6.733978386575241       10.000007589386426        0.003044444612928       -1.119476042773293        0.000000000000000
Se         -1.684471838683747        8.585137709568221        8.330514374958828       -0.001514894659182        0.559734550395829       -0.044514043131956
Se         -1.684471838683747        8.585137709568221       11.669498148265003       -0.001514894659182        0.559734550395829        0.044514043131956
Mo         -3.344301510221865        9.608693852215415       10.000007589386426        0.003023618668021       -1.119506381804146        0.000000000000000
Se         -3.344189977162959       11.459847864110353        8.330514374958828       -0.001518237094784        0.559807826868651       -0.044502473162563
Se         -3.344189977162959       11.459847864110353       11.669498148265003       -0.001518237094784        0.559807826868651        0.044502473162563
Mo          4.954287854399686        0.984548783069401       10.000007589386426        0.003035188637414       -1.119552147460856        0.000000000000000
Se          4.954400715233103        2.835706778287870        8.330514374958828       -0.001519779757370        0.559729408187210       -0.044512243358939
Se          4.954400715233103        2.835706778287870       11.669498148265003       -0.001519779757370        0.559729408187210        0.044512243358939
Mo          3.294569715920474        3.859264248709576       10.000007589386426        0.003040073735602       -1.119482984754929        0.000000000000000
Se          3.294682576753890        5.710422243928045        8.330514374958828       -0.001520036867801        0.559738921273155       -0.044511472027646
Se          3.294682576753890        5.710422243928045       11.669498148265003       -0.001520036867801        0.559738921273155        0.044511472027646
Mo          1.634851577441262        6.733978386575241       10.000007589386426        0.003039045293878       -1.119477071215017        0.000000000000000
Se          1.634964438274678        8.585137709568221        8.330514374958828       -0.001518494205215        0.559734293285398       -0.044513786021525
Se          1.634964438274678        8.585137709568221       11.669498148265003       -0.001518494205215        0.559734293285398        0.044513786021525
Mo         -0.024865233263440        9.608693852215415       10.000007589386426        0.003031074870519       -1.119508438687594        0.000000000000000
Se         -0.024753700204534       11.459847864110353        8.330514374958828       -0.001517208653061        0.559808083979082       -0.044503244493856
Se         -0.024753700204534       11.459847864110353       11.669498148265003       -0.001517208653061        0.559808083979082        0.044503244493856
Mo          8.273725459132622        0.984548783069401       10.000007589386426        0.003032617533104       -1.119558318111199        0.000000000000000
Se          8.273836992191526        2.835706778287870        8.330514374958828       -0.001524150634696        0.559729922408072       -0.044512757579801
Se          8.273836992191526        2.835706778287870       11.669498148265003       -0.001524150634696        0.559729922408072        0.044512757579801
Mo          6.614007320653410        3.859264248709576       10.000007589386426        0.003036731300000       -1.119483756086222        0.000000000000000
Se          6.614118853712315        5.710422243928045        8.330514374958828       -0.001519779757370        0.559738664162724       -0.044511472027646
Se          6.614118853712315        5.710422243928045       11.669498148265003       -0.001519779757370        0.559738664162724        0.044511472027646
Mo          4.954287854399686        6.733978386575241       10.000007589386426        0.003039302404309       -1.119478099656741        0.000000000000000
Se          4.954400715233103        8.585137709568221        8.330514374958828       -0.001518751315646        0.559735321727122       -0.044513014690232
Se          4.954400715233103        8.585137709568221       11.669498148265003       -0.001518751315646        0.559735321727122        0.044513014690232
Mo          3.294569715920474        9.608693852215415       10.000007589386426        0.003039045293878       -1.119507153135439        0.000000000000000
Se          3.294682576753890       11.459847864110353        8.330514374958828       -0.001529035732884        0.559801399107877       -0.044510186475492
Se          3.294682576753890       11.459847864110353       11.669498148265003       -0.001529035732884        0.559801399107877        0.044510186475492
Mo         11.593157752767514        0.984548783069401       10.000007589386426        0.003083525398433       -1.119554204344303        0.000000000000000
Se         11.593267958051909        2.835706778287870        8.330514374958828       -0.001475299652815        0.559729408187210       -0.044511986248508
Se         11.593267958051909        2.835706778287870       11.669498148265003       -0.001475299652815        0.559729408187210        0.044511986248508
Mo          9.933443597611834        3.859264248709576       10.000007589386426        0.003005106716992       -1.119466786797779        0.000000000000000
Se          9.933555130670738        5.710422243928045        8.330514374958828       -0.001521579530387        0.559741235267034       -0.044512757579801
Se          9.933555130670738        5.710422243928045       11.669498148265003       -0.001521579530387        0.559741235267034        0.044512757579801
Mo          8.273725459132622        6.733978386575241       10.000007589386426        0.003040330846033       -1.119478356767172        0.000000000000000
Se          8.273836992191526        8.585137709568221        8.330514374958828       -0.001517722873922        0.559736350168846       -0.044511214917215
Se          8.273836992191526        8.585137709568221       11.669498148265003       -0.001517722873922        0.559736350168846        0.044511214917215
Mo          6.614007320653410        9.608693852215415       10.000007589386426        0.003039816625171       -1.119508695798025        0.000000000000000
Se          6.614118853712315       11.459847864110353        8.330514374958828       -0.001529807064177        0.559812969077270       -0.044496816733082
Se          6.614118853712315       11.459847864110353       11.669498148265003       -0.001529807064177        0.559812969077270        0.044496816733082
