# total energy = -9526.732838693755 eV 

 CRYSTAL
 PRIMVEC
        6.373252033781299        0.000000000000000        0.000000000000000
       -3.186626016890650        5.519395592555450        0.000000000000000
        0.000000000000000        0.000000000000000       20.000010552493670
 PRIMCOORD
12 1
Se          3.178638420116711        5.499183461055516        7.998818796119186       -0.082419833967528        0.050974971151403        2.943602816582834
Se         -0.016355676694293        5.502394305430135        8.018651081797906        0.011676413111352        0.024810128145353        2.937068354980134
Se          4.754906165997689        2.751192691438644        8.013282891609851        0.068155347258191       -0.094275195938824        2.900101274327975
Se          1.568441392383493        2.744713643421102        8.050850663048179       -0.020123519209920        0.003038273962585        2.733089537472219
Se          3.170116107497139        5.509873954016981       12.007863913928650       -0.021086911994706       -0.009262146164693       -3.072270132207811
Se         -0.015006459238741        5.495513105209262       12.009073557164662       -0.036521765385746        0.125718258981933       -3.048231592465751
Se          4.742352134141546        2.755787806155000       11.940175516053470        0.031567504491690       -0.129993491227838       -2.683650286924905
Se          1.557921065251330        2.752325855650250       11.931713112003015        0.134580341316061       -0.098788512443794       -2.683970646521874
Mo          1.569286485603173        0.904763429170881        9.974591296436929        0.060888892258565       -0.151865875589109        0.211963124830766
Mo          4.768702982000418        0.906087790943501        9.993208840278012       -0.061694676349175       -0.089796846452465        0.021829704029732
Mo         -0.031051121233786        3.662262453496952       10.039935612214085        0.007718455137244        0.163010841439679       -0.424125510245521
Mo          3.172258157505693        3.661109532204041        9.971960417997384       -0.092739989555597        0.206429851246201        0.164593613252633
