# total energy = -38122.6576482342 eV 

 CRYSTAL
 PRIMVEC
       26.555490215667398        0.000000000000000        0.000000000000000
       -3.319436276958425        5.749422964633285        0.000000000000000
        0.000000000000000        0.000000000000000       20.000028456517960
 PRIMCOORD
48 1
Mo          1.678081259963346        1.027078728424303       10.000008917160937       -0.623313331983036       -0.661462606396721        0.000000000000000
Se          1.684244789242403        2.945771318584747        8.330515702733337       -0.142567733964083       -0.090488987732593        0.037171483444767
Se          1.684244789242403        2.945771318584747       11.669499476039515       -0.142567733964083       -0.090488987732593       -0.037171483444767
Mo          0.023488331095758        3.902345220486453       10.000008917160937       -0.654339361907136       -0.526977653050545        0.000000000000000
Se          0.020973526172334        5.818963826861054        8.327005066926827       -0.127544771483431       -0.034753616952074        0.100213161341711
Se          0.020973526172334        5.818963826861054       11.673010111846025       -0.127544771483431       -0.034753616952074       -0.100213161341711
Mo          5.002645402082416        1.027628427071767       10.000008917160937       -0.070658574413961       -0.050140133582095        0.000000000000000
Se          5.000130597158993        2.944249688995389        8.327005066926827        0.012189862641968       -0.062680951962315        0.019958197202817
Se          5.000130597158993        2.944249688995389       11.673010111846025        0.012189862641968       -0.062680951962315       -0.019958197202817
Mo          3.345014525134156        3.897631620973172       10.000008917160937       -0.055561049908332        0.047954694918984        0.000000000000000
Se          3.333986030047589        5.812170932463887        8.323714841689105        0.076989918776207        0.037493642814753        0.111305676664366
Se          3.333986030047589        5.812170932463887       11.676300337083747        0.076989918776207        0.037493642814753       -0.111305676664366
Mo          8.324168940571793        1.022914827558487       10.000008917160937       -0.234322476348263       -0.088578657230604        0.000000000000000
Se          8.313140445485226        2.937456794598222        8.323714841689105        0.045469722603813       -0.088438532045734        0.040743518662013
Se          8.313140445485226        2.937456794598222       11.676300337083747        0.045469722603813       -0.088438532045734       -0.040743518662013
Mo          6.663369993640802        3.887949489240540       10.000008917160937       -0.114130034748398        0.109317441701798        0.000000000000000
Se          6.644528873332787        5.800536972200402        8.320849504294834        0.148829915620402        0.070174949693336        0.157471397204772
Se          6.644528873332787        5.800536972200402       11.679170985576061        0.148829915620402        0.070174949693336       -0.157471397204772
Mo         11.642519097980395        1.013235351374876       10.000008917160937       -0.376142790289562       -0.140880575316161        0.000000000000000
Se         11.623680633221403        2.925822834334738        8.320849504294834        0.078472931741951       -0.107541065734335        0.056722674835383
Se         11.623680633221403        2.925822834334738       11.679170985576061        0.078472931741951       -0.107541065734335       -0.056722674835383
Mo          9.978621125341238        3.873912257112539       10.000008917160937       -0.170678388711594        0.143701333854159        0.000000000000000
Se          9.953159721322455        5.784794877600555        8.318594943175524        0.213136319727209        0.099410462576272        0.190097939561562
Se          9.953159721322455        5.784794877600555       11.681420235597328        0.213136319727209        0.099410462576272       -0.190097939561562
Mo         14.957772885229854        0.999198119246874       10.000008917160937       -0.495819982585796       -0.185662270406741        0.000000000000000
Se         14.932314136760095        2.910080739734890        8.318594943175524        0.105963436130001       -0.120418698779105        0.068669825230530
Se         14.932314136760095        2.910080739734890       11.681420235597328        0.105963436130001       -0.120418698779105       -0.068669825230530
Mo         13.291041441784683        3.856398911315306       10.000008917160937       -0.217868694319352        0.169448886630771        0.000000000000000
Se         13.260561050115140        5.765932512900366        8.317086591331273        0.263689115550986        0.121862888069775        0.210280079949740
Se         13.260561050115140        5.765932512900366       11.682931242990600        0.263689115550986        0.121862888069775       -0.210280079949740
Mo         18.270195857222323        0.981682117900620       10.000008917160937       -0.583309520030878       -0.216086661922408        0.000000000000000
Se         18.239715465552777        2.891218375034702        8.317086591331273        0.128671943612734       -0.125047200757142        0.075988730758071
Se         18.239715465552777        2.891218375034702       11.682931242990600        0.128671943612734       -0.125047200757142       -0.075988730758071
Mo         16.601053175265566        3.836508849143771       10.000008917160937       -0.249860688132547        0.188209206335773        0.000000000000000
Se         16.567484380083943        5.745134252963455        8.316425359624903        0.299475287993772        0.136793805016145        0.217282482536776
Se         16.567484380083943        5.745134252963455       11.683589819147947        0.299475287993772        0.136793805016145       -0.217282482536776
Mo         21.580207590703203        0.961792055729085       10.000008917160937       -0.636684874165669       -0.214315685273996        0.000000000000000
Se         21.546638795521581        2.870420115097791        8.316425359624903        0.143557094902394       -0.117377082380918        0.074901667855997
Se         21.546638795521581        2.870420115097791       11.683589819147947        0.143557094902394       -0.117377082380918       -0.074901667855997
Mo         19.909267102058852        3.815492834187092       10.000008917160937       -0.263658776520133        0.213890424621198        0.000000000000000
Se         19.874718409288270        5.723709283457455        8.316648425742716        0.313821535820152        0.151905984816338        0.207950916555726
Se         19.874718409288270        5.723709283457455       11.683369408579157        0.313821535820152        0.151905984816338       -0.207950916555726
Mo         24.888421517496489        0.940778696321427       10.000008917160937       -0.477837164824000       -0.135058566717635        0.000000000000000
Se         24.853872824725904        2.848992490042769        8.316648425742716        0.537741324132010        0.245467956419695        0.343217999832865
Se         24.853872824725904        2.848992490042769       11.683369408579157        0.537741324132010        0.245467956419695       -0.343217999832865
Mo         23.216378976008183        3.794673329858008       10.000008917160937       -0.133328727738176        0.296740661450143        0.000000000000000
Se         23.183030591395351        5.702998656638256        8.317739856390579        0.580861828728194        0.408586270019513        0.370375289102398
Se         23.183030591395351        5.702998656638256       11.682280633480316        0.580861828728194        0.408586270019513       -0.370375289102398
