# total energy = -9517.75180774229 eV 

 CRYSTAL
 PRIMVEC
        6.373252033781299        0.000000000000000        0.000000000000000
       -3.186626016890650        5.519395592555450        0.000000000000000
        0.000000000000000        0.000000000000000       20.000010552493670
 PRIMCOORD
12 1
Se          3.163680397593427        5.502843619698517        7.723091518731297       -0.032544781239747        0.032008448880776        3.471591942068752
Se         -0.016706842881354        5.509457143333971        7.668327438655421        0.029402634663056       -0.004605362039251        3.340836118413135
Se          4.755424311388035        2.748228491917732        7.693658566188889        0.035279150672944       -0.054378341925943        3.319039067408134
Se          1.574522749474128        2.737134572102529        7.724592419585253       -0.045608562236528        0.026207780448020        3.414889321846983
Se          3.153550750810935        5.509864394138930       12.271686593842638        0.013407280532536       -0.030891304058281       -3.502579662538641
Se         -0.021625718801027        5.498914509819691       12.294131275530006       -0.005111612477800       -0.041107587032244       -3.401697756966018
Se          4.743045543962821        2.754148605731912       12.343328319954374        0.037296953335073        0.016968517111682       -3.347654687042039
Se          1.575988597441897        2.746674055746693       12.303394160035904       -0.036584500330899        0.038078054824311       -3.506294908265928
Mo          1.572587192831468        0.910967152700564       10.005390036890176       -0.052400391380613        0.035837337418546        0.027325696601808
Mo          4.761018752023288        0.896630522250573        9.992360560432314        0.068593206322106       -0.027823976616997       -0.114572007579208
Mo         -0.030677648664606        3.656115451910369       10.022661549901725        0.049123518938102       -0.036920543664156        0.134934896600346
Mo          3.160667761357058        3.656429015910431       10.032209318773532       -0.060852639687800        0.046626976653537        0.164181979452675
