# total energy = -38122.317139381106 eV 

 CRYSTAL
 PRIMVEC
       13.277745107833699        0.000000000000000        0.000000000000000
       -6.638872553916849       11.498859207011680        0.000000000000000
        0.000000000000000        0.000000000000000       20.000015178772852
 PRIMCOORD
48 1
Mo          1.634851577441262        0.943875066480574       10.024757306267427        0.027637828664987        0.012957594388797       -0.282248632009412
Se          1.691182411061246        2.822066550738593        8.324349517905260       -0.257488383287664        0.176835669312084        0.029980876022272
Se          1.578745137713599        2.898766773128505       11.663338602309480        0.253613214872323       -0.183990024163815        0.012046652131926
Mo         -0.024865233263440        3.818589204346238        9.931361647178925        0.166356619477685        0.102063070892426        1.005007907808191
Se          0.021972012604443        5.789764737594417        8.316356315350342       -0.215516133876121       -0.242149174976939        0.069956148716594
Se         -0.071479413013512        5.680499517553032       11.655338760882010        0.188994421591907        0.231786081946900        0.023093916018734
Mo         -1.684584699517163        6.693304669986414        9.967839596313677        0.026940802286670        0.010422485539589        0.423635971984984
Se         -1.735644268329338        8.654097006560265        8.335148308001459        0.222343958480540       -0.209715465443364       -0.008330892183777
Se         -1.633300736812666        8.565595524318512       11.674138720180190       -0.225790266697049        0.199984349852611       -0.024944082679880
Mo         -3.344301510221865        9.568020135626588       10.065177417924696        0.152471884874868        0.095720156560787       -0.951534337488776
Se         -3.396443215260328       11.434707781523180        8.345173005557875        0.265642897715806        0.191711307515799       -0.061395914028406
Se         -3.291936739065590       11.534418336184968       11.684158106638563       -0.293072981152582       -0.205168210361509       -0.106379440807284
Mo          4.954287854399686        0.943875066480574        9.933837946641535       -0.009599217939674        0.001327975375878        0.254290186637025
Se          4.943678936058527        2.927312597335837        8.325467504043338        0.078989980818599       -0.366041692788666        0.016831220141552
Se          4.965121166633168        2.793522054305772       11.664457916222071       -0.072026401906637        0.392327377697265       -0.015299099083496
Mo          3.294569715920474        3.818589204346238       10.030237031673432        0.003462249063229       -0.003130062386436       -0.148499271606195
Se          3.223779417878058        5.723916416281137        8.344510446076994        0.374552562274111        0.037758723669066        0.018645391342365
Se          3.365585735629723        5.746346511091801       11.683498202706703       -0.384584754179511       -0.062199641235569       -0.043439064420137
Mo          1.634851577441262        6.693304669986414       10.069447540751375       -0.007343588128913       -0.000216744093294       -0.340899120856090
Se          1.638026286296544        8.541739399683266        8.337072253267586       -0.025326148780278        0.391859693823359        0.011469696324865
Se          1.631902590252811        8.677953131195510       11.676058682122784        0.030434161712044       -0.368039955058042       -0.022268848645802
Mo         -0.024865233263440        9.568020135626588        9.977276089761816        0.005383892424180       -0.002395240774769        0.107683247802653
Se          0.046480074524483       11.488417588258878        8.317226007654906       -0.386098363286538       -0.001859422636660        0.086303744137522
Se         -0.095988802708062       11.480708529449270       11.656208453186572        0.383610305646195       -0.027153689723500        0.028655214640272
Mo          8.273725459132622        0.943875066480574       10.071327669458643       -0.000592125322487       -0.010654913369171       -0.406163004207770
Se          8.233183192220361        2.801641395439212        8.344007219537408        0.179134493675245        0.320459870036957       -0.004602276714079
Se          8.314489464388181        2.919191928427886       11.682988337294562       -0.201069355871238       -0.316453318191399       -0.048540135370267
Mo          6.614007320653410        3.818589204346238       10.024757306267427        0.002451547959148        0.010500390000168       -0.125832158902845
Se          6.670336826498883        5.696782016378768        8.324349517905260       -0.298080463905845        0.232228311888142        0.028038920937275
Se          6.557899553151237        5.773480910994169       11.663338602309480        0.322616512331801       -0.233325144986592       -0.005799897101464
Mo          4.954287854399686        6.693304669986414        9.931361647178925       -0.002002118925840       -0.011593880663016        0.330156018609101
Se          5.001125100267569        8.664478875460080        8.316356315350342       -0.240923272442150       -0.297255139422482        0.046894628612160
Se          4.907675002424125        8.555213655418697       11.655338760882010        0.222651719666392        0.299491485950922       -0.000802955875870
Mo          3.294569715920474        9.568020135626588        9.967839596313677        0.000651003611176        0.009911607113283        0.161968258642160
Se          3.243510147108299       11.528808488876908        8.335148308001459        0.246334161461580       -0.278145920862676       -0.025400710805254
Se          3.345853678624970       11.440308334409664       11.674138720180190       -0.222121557957765        0.280295621175884       -0.061108464566599
Mo         11.593157752767514        0.943875066480574        9.962629409133363        0.013121373733315       -0.003062185232664        0.368136371469650
Se         11.663018608652381        2.878856794339308        8.315971260742216       -0.722051193671932       -0.307902596589156       -0.671644436572937
Se         11.523527929647523        2.841976529527789       11.654957689597415        0.571828253736620        0.189354119084811       -0.520278126551172
Mo          9.933443597611834        3.818589204346238        9.933837946641535        0.002590644702294        0.011195102384606        0.366810710087650
Se          9.922834679270673        5.802026735201501        8.325467504043338       -0.060007774811685       -0.423081384785416       -0.241019174632895
Se          9.944275582070805        5.668237519945947       11.664457916222071        0.033870699732177        0.442899199692932       -0.244298618179716
Mo          8.273725459132622        6.693304669986414       10.030237031673432        0.008271499674226       -0.003953329986351       -0.167266533292832
Se          8.202932505541185        8.598631881921312        8.344510446076994        0.580482333732106        0.150878057313383        0.504555309477463
Se          8.344740151067359        8.621060648957465       11.683498202706703       -0.713023275109838       -0.261978045632986        0.638395944083669
Mo          6.614007320653410        9.568020135626588       10.069447540751375        0.002331734498323        0.009671465970772       -0.368732867669463
Se          6.617180701734181       11.416457520872463        8.337072253267586        0.102213480494534        0.434459549796861        0.185723976910170
Se          6.611057005690449       11.552668596835685       11.676058682122784       -0.132267632989628       -0.416633826508378        0.178446723272443
