# total energy = -9507.008302146502 eV 

 CRYSTAL
 PRIMVEC
        5.443805113637699        0.000000000000000        0.000000000000000
       -2.721902556818850        4.714471323538089        0.000000000000000
        0.000000000000000        0.000000000000000       19.999957500357748
 PRIMCOORD
12 1
Se          2.693378106784411        4.709398785933201        8.346346733639832       -0.002802246586969        0.443890874625122       -6.782109855574204
Se         -0.033207211193190        4.708256675620360        8.350797588700743        0.476895369315415        0.086628731722248       -6.828825792436851
Se          4.057750816707757        2.347989358783531        8.393423127121036        0.218948815239790       -0.489721323163563       -8.361959094259367
Se          1.330475224241747        2.348094968602735        8.343459339407559        0.321840038830319       -0.391091962076530       -7.255510579912089
Se          2.693617089828900        4.706650208731325       11.658569528795930        0.514317278319931       -0.473677632272023        7.012528367138859
Se         -0.018048935854266        4.709211519037292       11.617933156764158       -0.255654928804530       -0.710406405143587        8.447649887129494
Se          4.067701003694464        2.345660498955917       11.611565537922736       -0.210914114272473        0.808865559125328        8.162793898239775
Se          1.340146144026124        2.340861784748245       11.659042051079792        0.354125395645233        0.303372053685313        6.736363225036254
Mo          1.350923245009593        0.772685532122065       10.011854411034275       -1.086853614183398        0.306509058053385       -0.873343970110444
Mo          4.061333384853042        0.776954019711668       10.036039059632122        0.450209106355389       -0.768356782286776       -2.521951480014385
Mo         -0.004940797521138        3.122530684068835        9.987694259559440        0.138068301422385        0.633546584245442        0.546332412071912
Mo          2.702781191357198        3.138773909766907        9.972154917862561       -0.918180172612385        0.250441243485642        1.718033239801477
