# total energy = -9514.642131570012 eV 

 CRYSTAL
 PRIMVEC
        5.709346257185899        0.000000000000000        0.000000000000000
       -2.854673128592950        4.944436592379419        0.000000000000000
        0.000000000000000        0.000000000000000       19.999925579116063
 PRIMCOORD
12 1
Se          2.830343891387203        4.926502393916346        8.412489910505382        0.149821076331730       -0.230552208988751       -7.207919696252905
Se         -0.025407161779103        4.941084064257199        8.424460696802822       -0.193510823422047       -0.571623336723149       -7.713055046862601
Se          4.264560788858213        2.458187577762675        8.428796945285155       -0.095274584183943        0.646620649659462       -7.376900899009771
Se          1.402880579603819        2.456203009003677        8.435834285481763        0.005601150738336        0.501920956001907       -7.296677559453883
Se          2.828822921544289        4.926086753508823       11.554017152163496       -0.089853924968137        0.663893842631824        7.646912102947487
Se         -0.017798316022151        4.929785268014228       11.559992553956267       -0.021579535580414        0.550590417918944        7.614921394686447
Se          4.266623004726308        2.452328075698925       11.588107658665152       -0.120641870633174       -0.274607310001454        6.886992913673334
Se          1.412745759001611        2.462295452394720       11.607144331890487       -0.177260158633590       -0.314292047908798        6.471425324122123
Mo          1.404371289911570        0.812253847709569        9.987078507859440       -0.220618490378406        0.322652250681704        0.925870088491793
Mo          4.253347632809100        0.812748277095442        9.967651315350112        0.446572022199112        0.130352674499881        1.601397406793000
Mo         -0.024583303114191        3.292569138761219       10.017056001317421        0.326996131412674       -0.702940946670402       -0.674975302205948
Mo          2.833341869106852        3.289151524091668       10.017393994615846       -0.010250992882142       -0.722014941101167       -0.877990726929078
