# total energy = -9508.05905714666 eV 

 CRYSTAL
 PRIMVEC
        8.630457589390799        0.000000000000000        0.000000000000000
       -4.315228794695400        7.474192033852167        0.000000000000000
        0.000000000000000        0.000000000000000       20.000041178044860
 PRIMCOORD
12 1
Se          4.292050837793331        7.447257238761437        8.105188953493778       -0.023792485059636       -0.037381285556426        2.784137013765151
Se         -0.031733329510431        7.467072769386679        8.117714336593261        0.024004601165173        0.002459775492938        2.832041315039668
Se          6.433515059854004        3.729763580158137        8.104980959465875       -0.002729741445440       -0.013666704957368        2.806823666861253
Se          2.116622312935371        3.717708556997276        8.072573591217711       -0.000663344911862        0.047759290991459        2.852705023265023
Se          4.271189295708256        7.462937054109842       11.881706311550923        0.024703941537369        0.001254956013487       -2.836437646298553
Se         -0.045342698083141        7.459073198247071       11.936984392410972       -0.027975414660829        0.042289780793771       -2.942441705876645
Se          6.425016648265731        3.727769081409229       11.909164975417328       -0.006981062421267       -0.023124512160017       -2.906161110075134
Se          2.139333362081852        3.717656774251739       11.875016843873386        0.007528964749631       -0.021561023629385       -2.874035675948273
Mo          2.138361572557287        1.224279602663344       10.000073234813724       -0.009074455550096        0.000436573511760        0.081463640274809
Mo          6.423335435127318        1.239527895132280        9.975233914825699        0.008593144823350       -0.010494476460256        0.101449091183307
Mo         -0.027472472598549        4.963139685120700        9.968537542782091       -0.016686981189787        0.005050934416095        0.043976682331262
Mo          4.273498806159178        4.970119999218999        9.971085253862480        0.023073347184257        0.006976691543941        0.056479962588563
