# total energy = -9526.879188521058 eV 

 CRYSTAL
 PRIMVEC
        7.037104892651799        0.000000000000000        0.000000000000000
       -3.518552446325899        6.094308764658774        0.000000000000000
        0.000000000000000        0.000000000000000       19.999937665154004
 PRIMCOORD
12 1
Se          3.471743735711448        6.059481428834551        8.693188305958413        0.383062403317832        1.394431737408691       -3.917462824122652
Se         -0.116616087439069        6.130597003458711        8.561750668194442        0.171672120527232       -0.040977489154181       -2.179562661321347
Se          5.301293192042907        2.985805605585738        8.496791856640861        0.462082208946422       -0.327046525057141       -2.486137796755487
Se          1.684516835625374        3.068400105710792        8.634218774378970        0.176104704356882       -0.778413142572686       -4.133607850112887
Se          3.439236533370332        6.132436502677651       11.528034641097475        0.224211865761422       -0.977203214473515        2.296916089542617
Se          0.057808409272156        6.046138374247595       11.426646144935615       -1.087891826103591        0.000763875090365        4.402627122007984
Se          5.229941874404843        3.084393334000322       11.597690016456410       -0.148016161106432       -0.076326830974776        1.055761249768112
Se          1.786773006820497        3.058871865686142       11.370584345097814        0.427574903787202        1.310577227236438        4.375313252485999
Mo          1.733869459658520        1.051035245767881       10.161342314554316       -0.121908653726485       -1.552373646702108       -1.389107237494061
Mo          5.202419757169682        1.033245444599257       10.072541791624431        0.720157318237523        0.665556061567943       -0.692782256432972
Mo         -0.058559268364202        4.045841308511321       10.033768047376411       -0.578239559442893        0.124021587248066       -0.294890237678566
Mo          3.587061477297822        4.005006396240240        9.856905193819882       -0.628809067444681        0.256990103272475        2.962933407223692
