# total energy = -9526.720086209016 eV 

 CRYSTAL
 PRIMVEC
        7.302698953924899        0.000000000000000        0.000000000000000
       -3.651349476962450        6.324319861572811        0.000000000000000
        0.000000000000000        0.000000000000000       20.000054981792154
 PRIMCOORD
12 1
Se          3.616950843809882        6.327912059188247        8.303127815498469        0.199066208503674        0.059241585727441        0.385277923901364
Se         -0.050313404982856        6.370033296484590        8.244818685430960        0.359337538301536       -0.574581906452139        0.616787355024557
Se          5.397661404292000        3.138829998438302        8.404027016135164        0.160653653008691       -0.200291596817601       -0.754929961361488
Se          1.833327236715043        3.108875787869092        8.266222165795018       -0.068876542017017        0.105686271085432        0.644854043888376
Se          3.651274989433119        6.298025763719309       11.636871230636398        0.060330705512963        0.115219668754781       -1.924925375602534
Se          0.013905069078168        6.272897906888748       11.638673536738226       -0.076172307605773       -0.104309701838103       -2.102004528492731
Se          5.417984085210878        3.150638462646798       11.669109725438396        0.122858419658429       -0.041162351554037       -2.131458071021116
Se          1.820143674293522        3.200655378052125       11.721758533546716       -0.025718756408345       -0.232349925121983       -2.633114717500002
Mo          1.886227257667380        1.008136860319437        9.887706869095444       -0.741525509043693        0.385319061570316        1.598646582292222
Mo          5.447575351642077        1.013417441933020        9.900270432375777       -0.072468888958309        0.076833338523756        1.630134125439885
Mo         -0.044027971993213        4.141821377074804        9.800175989163805        0.439849612871384        0.752748893575704        2.395670406299093
Mo          3.627226471507949        4.247693715699120        9.852961357742567       -0.357334390933972       -0.342353080343135        2.275062474242806
