# total energy = -38122.102767049975 eV 

 CRYSTAL
 PRIMVEC
       13.277745107833699        0.000000000000000        0.000000000000000
       -6.638872553916849       11.498859207011680        0.000000000000000
        0.000000000000000        0.000000000000000       20.000015178772852
 PRIMCOORD
48 1
Mo          1.634851577441262        0.943875066480574        9.986278400944926        0.093833223108014        0.068077957018474        1.052987285328547
Se          1.662772019854014        2.873577562884434        8.340363806279818       -0.219638128305178       -0.122195331856999       -0.103338081519528
Se          1.607155528920831        2.847257088757175       11.679348907360506        0.216218045352626        0.106234173413795       -0.084562592299100
Mo         -0.024865233263440        3.818589204346238       10.003307109045721        0.087458169972506       -0.031144557832770       -0.078483987490482
Se          0.049102429183280        5.695612247034767        8.377627797924951       -0.785588580479755        0.378425673806004       -0.528262176763592
Se         -0.098611157366859        5.774650680338170       11.716618210103684        0.752177337087693       -0.342217583146022       -0.337176933147166
Mo         -1.684584699517163        6.693304669986414       10.015777567251000        0.050820962003261        0.031471859411375       -0.611637690202976
Se         -1.666634515905883        8.572262280137155        8.349783038659314       -0.245334001885168        0.322961040309280       -0.188952512591661
Se         -1.702310489236121        8.647431578516134       11.688768139740002        0.225017649852032       -0.323462405649640       -0.148877481050129
Mo         -3.344301510221865        9.568020135626588       10.006456590185302        0.018808142245159       -0.020879680987357       -0.283765583552041
Se         -3.407022922562250       11.500848213228833        8.295308433805404        0.681080646499386       -0.176808929827265        0.324797837228016
Se         -3.281358359538179       11.468268610057741       11.634298845984137       -0.717811442665497        0.179393660989647        0.462059583228498
Mo          4.954287854399686        0.943875066480574       10.003307109045721        0.084601158863743       -0.044136347908884        0.113733056243004
Se          5.028258172395428        2.820898109169104        8.377627797924951       -0.785009567789246        0.442738248563154       -0.486827545263174
Se          4.880543258070777        2.899936542472505       11.716618210103684        0.726108910493250       -0.386215091422191       -0.300301383808427
Mo          3.294569715920474        3.818589204346238       10.015777567251000       -0.019621382538267        0.004935234722165        0.170761178270361
Se          3.312519899531754        5.697546814496979        8.349783038659314       -0.211123145052838        0.304863551295278       -0.189627941693778
Se          3.276843926201515        5.772716112875958       11.688768139740002        0.201990839655777       -0.299205836262132       -0.149843959160085
Mo          1.634851577441262        6.693304669986414       10.006456590185302        0.075990016310226        0.001358828627593        0.057372650004835
Se          1.572131492875387        8.626136730912190        8.295308433805404        0.567866181995616       -0.195147074204640        0.264985209233426
Se          1.697796055899458        8.593555799966587       11.634298845984137       -0.598870614643517        0.203684168954042        0.374382098058388
Mo         -0.024865233263440        9.568020135626588        9.988226246152244       -0.004045118410202       -0.054629024596124       -0.150813265484783
Se         -0.081424444099279       11.532218213820601        8.289487470350132        0.513829796942842       -0.443151167915267        0.425410548179430
Se          0.031917043690211       11.436907903887548       11.628477882528863       -0.577715568384608        0.438541177888259        0.569683181411169
Mo          8.273725459132622        0.943875066480574       10.015777567251000        0.065040711497612        0.017194517180491       -0.471572926284233
Se          8.291674314969390        2.822831348856804        8.349783038659314       -0.251536019700644        0.366283376593763       -0.165224305139763
Se          8.255998341639152        2.898000647235783       11.688768139740002        0.234018057598014       -0.360503791216344       -0.122446271637610
Mo          6.614007320653410        3.818589204346238       10.006456590185302        0.069799054243281        0.004847045844348        0.063979359638634
Se          6.551285908313024        5.751422593046525        8.295308433805404        0.568261874948855       -0.200457947266429        0.261070188701287
Se          6.676950471337094        5.718841662100923       11.634298845984137       -0.599913197441036        0.210063850077307        0.369839985185152
Mo          4.954287854399686        6.693304669986414        9.988226246152244        0.000116471025222       -0.047712754003457       -0.129995033890424
Se          4.897729971338358        8.657498764856893        8.289487470350132        0.553995074245639       -0.420090162031695        0.293969268114888
Se          5.011070131353337        8.562193766021885       11.628477882528863       -0.589619010006493        0.442522018690722        0.439605615072409
Mo          3.294569715920474        9.568020135626588        9.986278400944926        0.022908282287585        0.038314339310358       -0.165230475790106
Se          3.322490158333227       11.497718648706915        8.340363806279818       -0.319965703788664       -0.052810225407554       -0.082668459754261
Se          3.266873667400043       11.471398174579656       11.679348907360506        0.317006619838812        0.057562911723742       -0.058147066622869
Mo         11.593157752767514        0.943875066480574       10.006456590185302        0.008628883173253       -0.021465378549070       -0.402898987286807
Se         11.530437668201639        2.876708455180861        8.295308433805404        0.685843103011950       -0.165269556575611        0.273466253908880
Se         11.656108870098265        2.844126196460748       11.634298845984137       -0.765255773379038        0.174213914247645        0.408772932192386
Mo          9.933443597611834        3.818589204346238        9.988226246152244       -0.004319455240030       -0.051141578710661       -0.135469429186300
Se          9.876884386775995        5.782784626991228        8.289487470350132        0.581311257761502       -0.437804813614006        0.321307048906951
Se          9.990224546790975        5.687479628156220       11.628477882528863       -0.654387441557725        0.436529545876473        0.478324903311520
Mo          8.273725459132622        6.693304669986414        9.986278400944926        0.026610929603756        0.036061537714338       -0.148639911011927
Se          8.301644573770863        8.623005838615763        8.340363806279818       -0.321882462051427       -0.087001027626269       -0.117164194944088
Se          8.246028082837681        8.596686692263015       11.679348907360506        0.311345562370063        0.087136267712951       -0.091474234904010
Mo          6.614007320653410        9.568020135626588       10.003307109045721        0.056290215090518       -0.055569020331692        0.037420623452362
Se          6.687976310874640       11.445037867217074        8.377627797924951       -0.847007120226085        0.426733381346689       -0.619565947451879
Se          6.540261396549990       11.524077628294988       11.716618210103684        0.721666042246362       -0.441129765707105       -0.410960427738944
