# total energy = -9528.514196958538 eV 

 CRYSTAL
 PRIMVEC
        7.169928382150800        0.000000000000000        0.000000000000000
       -3.584964191075400        6.209337227152147        0.000000000000000
        0.000000000000000        0.000000000000000       20.000070686449963
 PRIMCOORD
12 1
Se          3.552999216362095        6.187962953652116        8.307528578069478        0.032563036080345       -0.023090830693562        1.445106403576739
Se         -0.026584660455339        6.182591960301047        8.310471833670350        0.033422556251024        0.033272403759347        1.371852299362296
Se          5.353913864670043        3.080236365621056        8.363706400929305       -0.077399752803148        0.033959402830857        1.027190110238762
Se          1.769595684141875        3.082151453491929        8.305481563516373       -0.025612055579499       -0.001587656911142        1.506527257316948
Se          3.570133194216921        6.184685579388635       11.656432198069458       -0.054420765147051        0.041168522204380       -0.828499797185143
Se         -0.042064535832402        6.195976065612008       11.643518440060367        0.128869147313276       -0.044142261448796       -0.778425226762941
Se          5.360039134486914        3.092656832557456       11.687428515458334       -0.068055588410981       -0.046356496480173       -1.019447743831439
Se          1.752911260796610        3.088585030229233       11.703031713603572        0.026741541702680       -0.053386924104184       -1.260731999318648
Mo          1.770258902517224        1.008185856592209       10.012211315603549       -0.116843064015826        0.175309204683509       -0.480106678598032
Mo          5.361220738684293        1.019872839855114       10.020128350523121       -0.100408822379667       -0.095192565956469       -0.377686738427442
Mo         -0.033445564924219        4.115729611449525       10.009721916469266        0.164819613321441        0.026320651927208       -0.208352780159307
Mo          3.547545051841793        4.119247895306645       10.029002570881708        0.056324153667404       -0.046273706921406       -0.397424849101362
