# total energy = -9504.068013377662 eV 

 CRYSTAL
 PRIMVEC
        5.443805113637699        0.000000000000000        0.000000000000000
       -2.721902556818850        4.714471323538089        0.000000000000000
        0.000000000000000        0.000000000000000       19.999957500357748
 PRIMCOORD
12 1
Se          2.706956589879357        4.728068859950933        8.300187076939764        1.248170869214382        0.161104110483723       -7.037940390803074
Se         -0.020212304006425        4.720250467046727        8.491891218397027       -2.478126749947817       -0.517885456880713      -10.602967806143155
Se          4.052095791955710        2.299826381801644        8.254723682913731        2.262824274839819        0.965192557801922       -7.364697923735823
Se          1.393672902186478        2.329132017869890        8.336976856278239       -1.380228185871490       -1.853447647355553       -8.219755428665515
Se          2.714464141511575        4.656240028998529       11.700711112941621       -2.789137040315916       -1.134683867653801        6.500139159940653
Se         -0.055146834562173        4.701590191878199       11.521867416684817        4.460603981525561       -2.098061482923618       11.649887799522046
Se          4.044706915274970        2.340263510566256       11.575559122140113        0.856305004740680        0.000979590741935        7.450815005700473
Se          1.385003642543010        2.310034605150737       11.571132764202215        0.708912079318881        3.791077106461962       10.589542013659591
Mo          1.300538106780319        0.754231577167344       10.153534338541299       -1.882903503877816       -0.185839933714530      -11.639069363918788
Mo          4.083194617428388        0.785453432635590        9.929062845344028        2.617149188179473       -0.425189176098378        3.973903191704848
Mo          0.051261046472058        3.087534094134792        9.962794294969660       -3.098364526955779       -0.929323595800369       -0.157628491678085
Mo          2.755543094899085        3.104166007517978        9.858824694245829       -0.525205390849978        2.226077794937419        4.857771977306400
