# total energy = -9211.223354276117 eV 

 CRYSTAL
 PRIMVEC
        4.381587621720000        0.000000000000000        0.000000000000000
       -2.190793810860000        3.794564420100063        0.000000000000000
        0.000000000000000        0.000000000000000       19.999905673320075
 PRIMCOORD
12 1
Se          2.168079222470241        3.783491710021214        8.824769849591091        0.346354747090506       -0.255407588569952      -82.237795925755933
Se         -0.018298386225827        3.786169736375609        8.839838567580948        1.171618295281228        0.923601860269915      -87.746935068387643
Se          3.265350132926051        1.881056314769278        8.869017750347792       -0.006952523163431       -1.149238374929254      -90.445968529506970
Se          1.086184617455334        1.884274152718669        8.849722114779260       -0.690525083959625        0.478991847769415      -86.750855577404764
Se          2.178128393680656        3.787691023597870       11.206564513580823        0.291875360765198       -0.244960163318561       73.064765264873657
Se         -0.023522991305966        3.784441200058841       11.184361694625281        0.718554748921386       -0.918328011110184       77.095740287379130
Se          3.274175088554957        1.894556862549321       11.159381387276330        1.272598931259337       -0.649918348046880       80.049121270761574
Se          1.087539842506732        1.880754423382141       11.206684130922895       -2.166593754073588        1.077442343968752       72.054321271223799
Mo          1.086658705236004        0.620157643532908        9.977424903902964       -5.595487623984213       -0.048270683638627       11.053842571404285
Mo          3.268818159528642        0.617564619978374        9.989965007676327        3.093165496931455       -4.865740086672100        9.432277936628102
Mo         -0.022752708202068        2.526982513264283        9.968316021396172        7.012049370405991       -1.032971238278766       13.504603001302202
Mo          2.179222037951037        2.512730085048352        9.985079537478109       -5.446657965474243        6.684798699666672       10.926882983261706
