# total energy = -38120.85094473084 eV 

 CRYSTAL
 PRIMVEC
       13.277745107833699        0.000000000000000        0.000000000000000
       -6.638872553916849       11.498859207011680        0.000000000000000
        0.000000000000000        0.000000000000000       20.000015178772852
 PRIMCOORD
48 1
Mo          1.634851577441262        0.943875066480574        9.960009710023588       -0.002116790178046       -0.001222045878325        0.652751190775133
Se          1.622665262981292        2.853315723849879        8.342387334634251        0.271620972345922        0.156786197906279       -0.312904165802508
Se          1.647263613568064        2.867517600017218       11.681377746812982       -0.247357718087208       -0.142850041217270       -0.233150052783112
Mo         -0.024865233263440        3.818589204346238        9.960009710023588       -0.002119104171924       -0.001214075454966        0.652750676554271
Se         -0.037052875497921        5.728031189490054        8.342387334634251        0.271599117959290        0.156804709857307       -0.312912650446729
Se         -0.012455852685659        5.742231737882882       11.681377746812982       -0.247387028676337       -0.142826129947192       -0.233141825249322
Mo         -1.684584699517163        6.693304669986414        9.960009710023588       -0.002101363552188       -0.001213047013242        0.652754533210735
Se         -1.696771013977133        8.602745327355718        8.342387334634251        0.271596289744550        0.156809337845065       -0.312912650446729
Se         -1.672172663390360        8.616947203523058       11.681377746812982       -0.247384457572028       -0.142830243714087       -0.233141825249322
Mo         -3.344301510221865        9.568020135626588        9.960009710023588       -0.002110876638134       -0.001228216528668        0.652750676554271
Se         -3.356489152456345       11.477458137446872        8.342387334634251        0.271591404646362        0.156837619992470       -0.312904165802508
Se         -3.331890801869573       11.491658685839701       11.681377746812982       -0.247390628222370       -0.142792962701598       -0.233150052783112
Mo          4.954287854399686        0.943875066480574       10.021517536461115       -0.002058683220650       -0.001227959418237       -0.866621046561854
Se          4.943797107989987        2.854295621438838        8.307286287667182        0.187158910225325        0.108056315037967        0.709524259254983
Se          4.965002994701708        2.866537702428261       11.646268733198848       -0.281568574919538       -0.162563726400250        0.887441335039660
Mo          3.294569715920474        3.818589204346238       10.021517536461115       -0.002092878907967       -0.001169081129549       -0.866621046561854
Se          3.284078969510774        5.729009759304502        8.307286287667182        0.187179993280663        0.108046030620729        0.709533258120066
Se          3.305284856222495        5.741253168068436       11.646268733198848       -0.281526151698431       -0.162578124584383        0.887425651303372
Mo          1.634851577441262        6.693304669986414       10.021517536461115       -0.002073081404783       -0.001181422430234       -0.866634159193833
Se          1.624360831031562        8.603725224944677        8.307286287667182        0.187164309544375        0.108059400363139        0.709525801917569
Se          1.645566717743283        8.615968633708611       11.646268733198848       -0.281561118717040       -0.162559355522923        0.887439278156213
Mo         -0.024865233263440        9.568020135626588       10.021517536461115       -0.002059711662374       -0.001204562369020       -0.866634159193833
Se         -0.035357307447650       11.478438035035831        8.307286287667182        0.187160709998341        0.108079712087184        0.709533258120066
Se         -0.014151420735929       11.490678788250744       11.646268733198848       -0.281560090275317       -0.162519760516557        0.887425651303372
Mo          8.273725459132622        0.943875066480574       10.074817060872983       -0.036723339963614       -0.021227551400437       -3.017585314648170
Se          8.268979993031081        2.857612402166775        8.281056102206657        0.070011941680111        0.040415959972978        1.398596926390148
Se          8.278692663577463        2.863220921700323       11.620038547738323       -0.160715873732982       -0.092790126089633        1.922442203060378
Mo          6.614007320653410        3.818589204346238       10.074817060872983       -0.036715626650685       -0.021197726590447       -3.017596884617563
Se          6.609261854551869        5.732326540032439        8.281056102206657        0.070007313692354        0.040424187506768        1.398596926390148
Se          6.618974525098250        5.737936387340499       11.620038547738323       -0.160716645064275       -0.092788840537478        1.922442203060378
Mo          4.954287854399686        6.693304669986414       10.074817060872983       -0.036745194350245       -0.021189499056656       -3.017585314648170
Se          4.949543716072657        8.607042005672614        8.281056102206657        0.070016312557437        0.040416217083408        1.398602325709198
Se          4.959257714393548        8.612650525206163       11.620038547738323       -0.160727186591944       -0.092791925862650        1.922434232637019
Mo          3.294569715920474        9.568020135626588       10.074817060872983       -0.036697886030949       -0.021187442173209       -3.017581457991705
Se          3.289825577593445       11.481758799087300        8.281056102206657        0.070009627686232        0.040427787052801        1.398602325709198
Se          3.299539575914336       11.487368646395360       11.620038547738323       -0.160723844156342       -0.092797839402562        1.922434232637019
Mo         11.593157752767514        0.943875066480574       10.099537566714748       -0.053866435057914       -0.031148928710097       -3.838667990121146
Se         11.596017779063741        2.862000696924914        8.273717492485558       -0.290236281767865       -0.167566838276187        1.095511036614487
Se         11.590528759236163        2.858832626942184       11.612707904664289        0.545911008075578        0.315181392889469        1.602679873622600
Mo          9.933443597611834        3.818589204346238       10.099537566714748       -0.053906030064280       -0.031122189225277       -3.838671846777611
Se          9.936299640584528        5.736716162565089        8.273717492485558       -0.290232682221831       -0.167565809834463        1.095511807945780
Se          9.930810620756949        5.733546764807849       11.612707904664289        0.545908694081700        0.315180621558176        1.602681930506047
Mo          8.273725459132622        6.693304669986414       10.099537566714748       -0.053905515843419       -0.031122960556570       -3.838671846777611
Se          8.276581502105316        8.611431628205263        8.273717492485558       -0.290235253326141       -0.167568638049203        1.095511036614487
Se          8.271092482277737        8.608262230448023       11.612707904664289        0.545910750965147        0.315182164220761        1.602679873622600
Mo          6.614007320653410        9.568020135626588       10.099537566714748       -0.053908858279021       -0.031075395126844       -3.838667990121146
Se          6.616862035851594       11.486148421619950        8.273717492485558       -0.290229854007091       -0.167564267171877        1.095528777234223
Se          6.611374343798526       11.482977696088199       11.612707904664289        0.545907151419114        0.315179593116452        1.602644649493559
