# total energy = -38121.9992608856 eV 

 CRYSTAL
 PRIMVEC
       13.277745107833699        0.000000000000000        0.000000000000000
       -6.638872553916849       11.498859207011680        0.000000000000000
        0.000000000000000        0.000000000000000       20.000015178772852
 PRIMCOORD
48 1
Mo          1.691669704306703        0.976677735769477       10.000007589386426       -0.380747895218382       -0.219824790478051        0.000000000000000
Se          1.633568947263845        2.859612030580014        8.256217424433432       -0.028642359118725       -0.016546341784055        0.527820461043213
Se          1.633568947263845        2.859612030580014       11.743797754339420       -0.028642359118725       -0.016546341784055       -0.527820461043213
Mo          0.031950238052980        3.851393201409652       10.000007589386426       -0.380717556187530       -0.219808078300039        0.000000000000000
Se         -0.026147863440857        5.734327496220190        8.256217424433432       -0.028646472885620       -0.016546341784055        0.527813776172008
Se         -0.026147863440857        5.734327496220190       11.743797754339420       -0.028646472885620       -0.016546341784055       -0.527813776172008
Mo         -1.627766572651721        6.726107339275316       10.000007589386426       -0.380727326383906       -0.219812963398227        0.000000000000000
Se         -1.685866001920069        8.609041634085855        8.256217424433432       -0.028652900646394       -0.016535286035524        0.527813776172008
Se         -1.685866001920069        8.609041634085855       11.743797754339420       -0.028652900646394       -0.016535286035524       -0.527813776172008
Mo         -3.287484711130934        9.600822804915492       10.000007589386426       -0.380718070408391       -0.219807049858315        0.000000000000000
Se         -3.345584140399282       11.483758427500540        8.256217424433432       -0.028650586652515       -0.016531686489491        0.527820461043213
Se         -3.345584140399282       11.483758427500540       11.743797754339420       -0.028650586652515       -0.016531686489491       -0.527820461043213
Mo          4.897472383083266        0.911072397191671       10.000007589386426        0.375013818387242        0.216488268415559        0.000000000000000
Se          4.955794878469425        2.861222621061594        8.404811325484220        0.031507854871709        0.018191077210869       -0.628849690892772
Se          4.955794878469425        2.861222621061594       11.595207836612163        0.031507854871709        0.018191077210869        0.628849690892772
Mo          3.237754244604053        3.785786535057336       10.000007589386426        0.374991192669318        0.216527349201064        0.000000000000000
Se          3.296076739990213        5.735936758927259        8.404811325484220        0.031514282632483        0.018186449223112       -0.628838378033810
Se          3.296076739990213        5.735936758927259       11.595207836612163        0.031514282632483        0.018186449223112        0.628838378033810
Mo          1.578036106124841        6.660502000697511       10.000007589386426        0.375015361049828        0.216508065918742        0.000000000000000
Se          1.636358601511001        8.610650896792922        8.404811325484220        0.031514282632483        0.018194933867333       -0.628847634009324
Se          1.636358601511001        8.610650896792922       11.595207836612163        0.031514282632483        0.018194933867333        0.628847634009324
Mo         -0.081682032354371        9.535216138563175       10.000007589386426        0.375009190399485        0.216518864556842        0.000000000000000
Se         -0.023359536968212       11.485367690207609        8.404811325484220        0.031507083540416        0.018199047634228       -0.628838378033810
Se         -0.023359536968212       11.485367690207609       11.595207836612163        0.031507083540416        0.018199047634228        0.628838378033810
Mo          8.330542258223554        0.976677735769477       10.000007589386426       -0.380735553917696       -0.219834817784858        0.000000000000000
Se          8.272441501180694        2.859612030580014        8.256217424433432       -0.028647244216913       -0.016540428244143        0.527813004840715
Se          8.272441501180694        2.859612030580014       11.743797754339420       -0.028647244216913       -0.016540428244143       -0.527813004840715
Mo          6.670824119744341        3.851393201409652       10.000007589386426       -0.380732725702956       -0.219816305833829        0.000000000000000
Se          6.612723362701481        5.734327496220190        8.256217424433432       -0.028648015548206       -0.016538885581557        0.527813004840715
Se          6.612723362701481        5.734327496220190       11.743797754339420       -0.028648015548206       -0.016538885581557       -0.527813004840715
Mo          5.011105981265128        6.726107339275316       10.000007589386426       -0.380750209212261       -0.219809363852194        0.000000000000000
Se          4.953005224222269        8.609041634085855        8.256217424433432       -0.028636445578813       -0.016532457820784        0.527825089030970
Se          4.953005224222269        8.609041634085855       11.743797754339420       -0.028636445578813       -0.016532457820784       -0.527825089030970
Mo          3.351387842785915        9.600822804915492       10.000007589386426       -0.380728354825630       -0.219813734729520        0.000000000000000
Se          3.293287085743057       11.483758427500540        8.256217424433432       -0.028635931357951       -0.016533486262507        0.527825089030970
Se          3.293287085743057       11.483758427500540       11.743797754339420       -0.028635931357951       -0.016533486262507       -0.527825089030970
Mo         11.536347592549136        0.911072397191671       10.000007589386426        0.374983736466821        0.216485440200818        0.000000000000000
Se         11.594668760160786        2.861222621061594        8.404811325484220        0.031508883313433        0.018187220554405       -0.628849948003203
Se         11.594668760160786        2.861222621061594       11.595207836612163        0.031508883313433        0.018187220554405        0.628849948003203
Mo          9.876626798520903        3.785786535057336       10.000007589386426        0.375011247282933        0.216511151243914        0.000000000000000
Se          9.934949293907062        5.735936758927259        8.404811325484220        0.031506569319554        0.018190305879576       -0.628848405340617
Se          9.934949293907062        5.735936758927259       11.595207836612163        0.031506569319554        0.018190305879576        0.628848405340617
Mo          8.216908660041689        6.660502000697511       10.000007589386426        0.375009961730778        0.216513722348223        0.000000000000000
Se          8.275231155427850        8.610650896792922        8.404811325484220        0.031505026656968        0.018193905425609       -0.628849948003203
Se          8.275231155427850        8.610650896792922       11.595207836612163        0.031505026656968        0.018193905425609        0.628849948003203
Mo          6.557190521562478        9.535216138563175       10.000007589386426        0.374973709160014        0.216502666599692        0.000000000000000
Se          6.615513016948637       11.485367690207609        8.404811325484220        0.031520710393256        0.018198533413367       -0.628840692027688
Se          6.615513016948637       11.485367690207609       11.595207836612163        0.031520710393256        0.018198533413367        0.628840692027688
