# total energy = -38120.25187849791 eV 

 CRYSTAL
 PRIMVEC
       13.277745107833699        0.000000000000000        0.000000000000000
       -6.638872553916849       11.498859207011680        0.000000000000000
        0.000000000000000        0.000000000000000       20.000015178772852
 PRIMCOORD
48 1
Mo          1.585126422012424        1.030003815671559       10.000007589386426        1.133919992563436       -2.211334311495215        0.000000000000000
Se          1.656174308309932        2.823679796769195        8.330514374958828       -0.450817172524596        0.904472072875633       -0.197703523219617
Se          1.656174308309932        2.823679796769195       11.669498148265003       -0.450817172524596        0.904472072875633        0.197703523219617
Mo         -0.074591716466788        3.904717953537224       10.000007589386426        1.133896852624651       -2.211310657335567        0.000000000000000
Se         -0.003543830169281        5.698393934634860        8.330514374958828       -0.450812544536839        0.904479271967700       -0.197700695004876
Se         -0.003543830169281        5.698393934634860       11.669498148265003       -0.450812544536839        0.904479271967700        0.197700695004876
Mo         -1.734309854946001        6.779433419177399       10.000007589386426        1.133935676299725       -2.211295230709710        0.000000000000000
Se         -1.663261968648493        8.573109400275033        8.330514374958828       -0.450814858530717        0.904486728170197       -0.197701466336169
Se         -1.663261968648493        8.573109400275033       11.669498148265003       -0.450814858530717        0.904486728170197        0.197701466336169
Mo         -3.394027993425213        9.654147557043062       10.000007589386426        1.133931305422398       -2.211246379727828        0.000000000000000
Se         -3.322980107127706       11.447827521464230        8.330514374958828       -0.450812287426408        0.904462045568826       -0.197676783734798
Se         -3.322980107127706       11.447827521464230       11.669498148265003       -0.450812287426408        0.904462045568826        0.197676783734798
Mo          5.004015665377545        0.857747645064100       10.000007589386426       -1.348089382002220        2.087628455856360        0.000000000000000
Se          4.933190845197849        2.897153527097903        8.330514374958828        0.557898267697954       -0.842671724139336       -0.197716378741165
Se          4.933190845197849        2.897153527097903       11.669498148265003        0.557898267697954       -0.842671724139336        0.197716378741165
Mo          3.344297526898333        3.732461782929764       10.000007589386426       -1.348103523075922        2.087674992844363        0.000000000000000
Se          3.273472706718636        5.771868992738078        8.330514374958828        0.557897496366661       -0.842669153035026       -0.197714321857717
Se          3.273472706718636        5.771868992738078       11.669498148265003        0.557897496366661       -0.842669153035026        0.197714321857717
Mo          1.684579388419120        6.607177248569940       10.000007589386426       -1.348106094180232        2.087670879077468        0.000000000000000
Se          1.613754568239425        8.646583130603743        8.330514374958828        0.557896467924938       -0.842655269071755       -0.197710208090822
Se          1.613754568239425        8.646583130603743       11.669498148265003        0.557896467924938       -0.842655269071755        0.197710208090822
Mo          0.024861249939908        9.481891386435604       10.000007589386426       -1.348095295542131        2.087661880212385        0.000000000000000
Se         -0.045964898014299       11.521298596243918        8.330514374958828        0.557899039029247       -0.842635471568571       -0.197691953250224
Se         -0.045964898014299       11.521298596243918       11.669498148265003        0.557899039029247       -0.842635471568571        0.197691953250224
Mo          8.223998975929273        1.030003815671559       10.000007589386426        1.133910736587922       -2.211344853022884        0.000000000000000
Se          8.295046862226782        2.823679796769195        8.330514374958828       -0.450823600285370        0.904468987550462       -0.197706608544788
Se          8.295046862226782        2.823679796769195       11.669498148265003       -0.450823600285370        0.904468987550462        0.197706608544788
Mo          6.564280837450061        3.904717953537224       10.000007589386426        1.133931562532829       -2.211300630028760        0.000000000000000
Se          6.635328723747568        5.698393934634860        8.330514374958828       -0.450818715187182        0.904481071740716       -0.197704294550910
Se          6.635328723747568        5.698393934634860       11.669498148265003       -0.450818715187182        0.904481071740716        0.197704294550910
Mo          4.904562698970849        6.779433419177399       10.000007589386426        1.133933876526708       -2.211299858697467        0.000000000000000
Se          4.975610585268356        8.573109400275033        8.330514374958828       -0.450815886972441        0.904486471059766       -0.197701209225738
Se          4.975610585268356        8.573109400275033       11.669498148265003       -0.450815886972441        0.904486471059766        0.197701209225738
Mo          3.244844560491636        9.654147557043062       10.000007589386426        1.133930019870244       -2.211246379727828        0.000000000000000
Se          3.315892446789144       11.447827521464230        8.330514374958828       -0.450812544536839        0.904460245795809       -0.197677040845229
Se          3.315892446789144       11.447827521464230       11.669498148265003       -0.450812544536839        0.904460245795809        0.197677040845229
Mo         11.642888219294393        0.857747645064100       10.000007589386426       -1.348096323983855        2.087627684525068        0.000000000000000
Se         11.572058088016655        2.897153527097903        8.330514374958828        0.557951232446731       -0.842673523912353       -0.197721006728922
Se         11.572058088016655        2.897153527097903       11.669498148265003        0.557951232446731       -0.842673523912353        0.197721006728922
Mo          9.983168753040673        3.732461782929764       10.000007589386426       -1.348128977008586        2.087694276126685        0.000000000000000
Se          9.912343932860976        5.771868992738078        8.330514374958828        0.557901867243988       -0.842665296378562       -0.197714064747286
Se          9.912343932860976        5.771868992738078       11.669498148265003        0.557901867243988       -0.842665296378562        0.197714064747286
Mo          8.323450614561459        6.607177248569940       10.000007589386426       -1.348096581094286        2.087673450181777        0.000000000000000
Se          8.252625794381764        8.646583130603743        8.330514374958828        0.557908552115192       -0.842656554623910       -0.197714321857717
Se          8.252625794381764        8.646583130603743       11.669498148265003        0.557908552115192       -0.842656554623910        0.197714321857717
Mo          6.663733803856757        9.481891386435604       10.000007589386426       -1.348113036161867        2.087669336414882        0.000000000000000
Se          6.592908983677061       11.521298596243918        8.330514374958828        0.557894411041490       -0.842631100691245       -0.197693238802379
Se          6.592908983677061       11.521298596243918       11.669498148265003        0.557894411041490       -0.842631100691245        0.197693238802379
