# total energy = -38121.22761453614 eV 

 CRYSTAL
 PRIMVEC
       13.277745107833699        0.000000000000000        0.000000000000000
       -6.638872553916849       11.498859207011680        0.000000000000000
        0.000000000000000        0.000000000000000       20.000015178772852
 PRIMCOORD
48 1
Mo          1.656281858045305        1.011023279039911       10.000007589386426       -0.166187955034980       -2.330190807295843        0.000000000000000
Se          1.649082664647838        2.817225484872277        8.330417447419538       -0.223005503619385        0.822582143506302       -0.135561731831013
Se          1.649082664647838        2.817225484872277       11.669597731353312       -0.223005503619385        0.822582143506302        0.135561731831013
Mo         -0.094082118510577        3.804007584668816       10.000007589386426        1.552535626273609        0.227077361514406        0.000000000000000
Se         -0.069293896168763        5.744674842982724        8.330640513537350        0.791499035066529       -0.287103905387550       -0.129375911972686
Se         -0.069293896168763        5.744674842982724       11.669378648559034        0.791499035066529       -0.287103905387550        0.129375911972686
Mo         -1.637047716482097        6.640686293898580       10.000007589386426       -1.883460147960832        1.447094638539308        0.000000000000000
Se         -1.654211857582994        8.643529249228941        8.330487819468610       -0.533966943005603       -0.624278781651269       -0.140100502268646
Se         -1.654211857582994        8.643529249228941       11.669528687078751       -0.533966943005603       -0.624278781651269        0.140100502268646
Mo         -3.322448997323392        9.635028931862294       10.000007589386426        0.050897066690824       -1.564530599208914        0.000000000000000
Se         -3.329800884789600       11.441458187136003        8.330416119645029       -0.404189938760628        0.766728501927543       -0.512965905894836
Se         -3.329800884789600       11.441458187136003       11.669597731353312       -0.404189938760628        0.766728501927543        0.512965905894836
Mo          4.885072296927060        0.929293446803151       10.000007589386426        1.145304071114794        0.624110888539856        0.000000000000000
Se          4.909860519268874        2.869959377342549        8.330640513537350        0.845656262021852       -0.246684860089401       -0.146656046926685
Se          4.909860519268874        2.869959377342549       11.669378648559034        0.845656262021852       -0.246684860089401        0.146656046926685
Mo          3.342106698955540        3.765972156032915       10.000007589386426       -1.661075051811340        1.682122111689247        0.000000000000000
Se          3.324942557854643        5.768813783588766        8.330487819468610       -0.649607758646287       -0.649215151018220       -0.138745016076656
Se          3.324942557854643        5.768813783588766       11.669528687078751       -0.649607758646287       -0.649215151018220        0.138745016076656
Mo          1.656706745888756        6.760314793996629       10.000007589386426       -0.635375924961681       -2.255279112133038        0.000000000000000
Se          1.649353530648037        8.566742721495828        8.330416119645029       -0.257970465345703        0.880430447808402       -0.148197166849824
Se          1.649353530648037        8.566742721495828       11.669597731353312       -0.257970465345703        0.880430447808402        0.148197166849824
Mo         -0.094175062726332        9.553871370439680       10.000007589386426        2.122788307289342        0.458874242099407        0.000000000000000
Se         -0.069352318247237       11.493828269390320        8.330639185762839        0.303582884238695       -0.076693727559748        0.221413990051779
Se         -0.069352318247237       11.493828269390320       11.669378648559034        0.303582884238695       -0.076693727559748       -0.221413990051779
Mo          8.321261114393177        0.891256690392740       10.000007589386426       -1.257656444343574        1.266102007779556        0.000000000000000
Se          8.304096973292280        2.894099645723101        8.330487819468610       -0.641944068030836       -0.671536707302367       -0.124743553338185
Se          8.304096973292280        2.894099645723101       11.669528687078751       -0.641944068030836       -0.671536707302367        0.124743553338185
Mo          6.635861161326392        3.885599328356454       10.000007589386426       -0.619258700486889       -2.260299193297418        0.000000000000000
Se          6.628507946085674        5.692028583630163        8.330416119645029       -0.249601263707714        0.882758839871123       -0.141112231814451
Se          6.628507946085674        5.692028583630163       11.669597731353312       -0.249601263707714        0.882758839871123        0.141112231814451
Mo          4.884978024936794        6.679157232574017       10.000007589386426        2.337690718566776        0.580084069674558        0.000000000000000
Se          4.909802097190401        8.619111475975634        8.330639185762839        0.837311485874804       -0.232119811286279       -0.143186598771389
Se          4.909802097190401        8.619111475975634       11.669378648559034        0.837311485874804       -0.232119811286279        0.143186598771389
Mo          3.341774755327844        9.515106993597360       10.000007589386426       -1.412318910090171        1.660351285948204        0.000000000000000
Se          3.324728786158408       11.518438569947691        8.330487819468610        0.115388590307918       -0.571114515180291        0.059407421955407
Se          3.324728786158408       11.518438569947691       11.669528687078751        0.115388590307918       -0.571114515180291       -0.059407421955407
Mo         11.615018232313052        1.010885190490789       10.000007589386426        0.135106389257793       -1.808539968153806        0.000000000000000
Se         11.607658378199780        2.817314445764499        8.330416119645029       -0.573922161086310        0.720505445761035       -0.404134402907542
Se         11.607658378199780        2.817314445764499       11.669597731353312       -0.573922161086310        0.720505445761035        0.404134402907542
Mo          9.864132440374432        3.804441766933842       10.000007589386426        2.117902180659489        0.396067563136355        0.000000000000000
Se          9.888956512628038        5.744396010335460        8.330639185762839        0.763826239382933       -0.352003206148138       -0.241448034831727
Se          9.888956512628038        5.744396010335460       11.669378648559034        0.763826239382933       -0.352003206148138        0.241448034831727
Mo          8.320930498539992        6.640391527957185       10.000007589386426       -1.355272790332648        1.628192941686181        0.000000000000000
Se          8.303883201596044        8.643719120983983        8.330487819468610       -0.097587806731238       -0.301492833545469        0.316473372805013
Se          8.303883201596044        8.643719120983983       11.669528687078751       -0.097587806731238       -0.301492833545469       -0.316473372805013
Mo          6.636283393620822        9.634888187764149       10.000007589386426       -0.649336507141630       -1.865895391759768        0.000000000000000
Se          6.628778812085875       11.441548475802737        8.330414791870517        0.063390576751749        0.996567743691259       -0.134399078462238
Se          6.628778812085875       11.441548475802737       11.669597731353312        0.063390576751749        0.996567743691259        0.134399078462238
