# total energy = -9500.08882234859 eV 

 CRYSTAL
 PRIMVEC
        8.895998732938999        0.000000000000000        0.000000000000000
       -4.447999366469499        7.704157302693497        0.000000000000000
        0.000000000000000        0.000000000000000       20.000011039389658
 PRIMCOORD
12 1
Se          4.421544445437485        7.693247249847420        7.916188984493731       -0.062743172686606        0.008851026585597        3.093046711912355
Se         -0.048516108289829        7.697503985241132        7.899661108447804        0.056977985493321       -0.007822584861780        3.060096210412562
Se          6.617535966261451        3.840743369761237        7.895044085105408       -0.049788149402119       -0.004207869312996        3.058001788842009
Se          2.202605695881905        3.822397151574297        7.907437100940266        0.049325350626401        0.009486346460485        3.085569169248914
Se          4.409677183127745        7.694551403261669       12.140221797262885        0.025722613064809        0.058180748089324       -3.088573761745045
Se         -0.021716912106851        7.685220390190689       12.117847470849670       -0.024184321356410       -0.056096353825579       -3.064348045609251
Se          6.640303495818660        3.835323927333131       12.084650272377962        0.040741975999427        0.043642695881452       -3.067314842872031
Se          2.187160462881776        3.820947993380702       12.128106336588496       -0.038637270011637       -0.047864963378581       -3.085444470689902
Mo          2.172170705016774        1.279768592121998       10.027606245363645       -0.000478225401575        0.031383413423127        0.006182220312293
Mo          6.653246284375213        1.250092429948787        9.985698974532514       -0.004038176428566        0.026779594046462       -0.002251516043866
Mo         -0.041364614908420        5.128321759170883       10.025272824895994       -0.044352063560455       -0.003562779241732        0.095566147412645
Mo          4.415689099071465        5.103089148364774        9.985565534551522        0.051453196552978       -0.058769273865778       -0.090529354070253
