# total energy = -38121.885445819855 eV 

 CRYSTAL
 PRIMVEC
       13.277745107833699        0.000000000000000        0.000000000000000
       -6.638872553916849       11.498859207011680        0.000000000000000
        0.000000000000000        0.000000000000000       20.000015178772852
 PRIMCOORD
48 1
Mo          1.573260101209553        0.910400543289215       10.000007589386426        1.820417441622164        1.142149583237417        0.000000000000000
Se          1.698627242743208        2.836057310758717        8.342808239154168       -0.295026249096541        0.223488357008717       -0.068901738839251
Se          1.698627242743208        2.836057310758717       11.657208267393193       -0.295026249096541        0.223488357008717        0.068901738839251
Mo          0.005866107788641        3.754243923779165       10.000007589386426       -0.156346281958916        0.486201481363801        0.000000000000000
Se         -0.025412276361883        5.663673958952384        8.320124539411946       -0.043304081443886        0.340898606635228        0.043371444376796
Se         -0.025412276361883        5.663673958952384       11.679887983811883       -0.043304081443886        0.340898606635228       -0.043371444376796
Mo         -1.619671131459475        6.719828293613822       10.000007589386426       -1.685244203652324       -0.873362739171903        0.000000000000000
Se         -1.748206342975859        8.626488591157546        8.317098541301871        0.281841626197211       -0.114238535350260        0.059753749705902
Se         -1.748206342975859        8.626488591157546       11.682917965245490        0.281841626197211       -0.114238535350260       -0.059753749705902
Mo         -3.368022201857010        9.635230753587933       10.000007589386426       -0.003920676961620       -0.592144091548894        0.000000000000000
Se         -3.350415911844022       11.557817706388503        8.339454280739931        0.215452113378814       -0.401932766287281       -0.056575350558447
Se         -3.350415911844022       11.557817706388503       11.660558242483900        0.215452113378814       -0.401932766287281        0.056575350558447
Mo          5.022459781106837        0.925102990447119       10.000007589386426       -0.984144681888416        0.281665762662439        0.000000000000000
Se          4.905362019226341        2.829791542842331        8.313976943427020        0.341507958356589        0.196059302013665        0.056452965993312
Se          4.905362019226341        2.829791542842331       11.686038235345832        0.341507958356589        0.196059302013665       -0.056452965993312
Mo          3.315826058063605        3.885963138572408       10.000007589386426       -0.255706350890721       -0.888387758536002        0.000000000000000
Se          3.251286922417957        5.801126504083190        8.329202533742173        0.152009086099150       -0.248185870785312        0.016162733021071
Se          3.251286922417957        5.801126504083190       11.670808661707147        0.152009086099150       -0.248185870785312       -0.016162733021071
Mo          1.568976700637766        6.719354278113473       10.000007589386426        0.902240868555813       -0.435043961806420        0.000000000000000
Se          1.679314762483864        8.647601533653514        8.346909734617979       -0.278920337480710       -0.215054620652558       -0.097149947667323
Se          1.679314762483864        8.647601533653514       11.653108099703893       -0.278920337480710       -0.215054620652558        0.097149947667323
Mo         -0.053237119009859        9.503459755588768       10.000007589386426        0.300559008460243        0.946093109438493        0.000000000000000
Se          0.023431236791794       11.422647605641735        8.333597467372865       -0.298958496027554        0.208418600429631       -0.050548682056881
Se          0.023431236791794       11.422647605641735       11.666417711399987       -0.298958496027554        0.208418600429631        0.050548682056881
Mo          8.236339312232493        1.004606144829295       10.000007589386426        0.648363601270900       -0.802294587841433        0.000000000000000
Se          8.281372112540224        2.929243181474516        8.342230657241979       -0.113168698847060       -0.329011877191355       -0.073805348978409
Se          8.281372112540224        2.929243181474516       11.657788504854405       -0.113168698847060       -0.329011877191355        0.073805348978409
Mo          6.552413188872680        3.785116008929390       10.000007589386426        0.886418549745325        0.488566640218148        0.000000000000000
Se          6.677780330406335        5.710771448624381        8.342808239154168       -0.348648429245048        0.045179959148127       -0.075283991066826
Se          6.677780330406335        5.710771448624381       11.657208267393193       -0.348648429245048        0.045179959148127        0.075283991066826
Mo          4.985020523226278        6.628958061644830       10.000007589386426       -0.394320754868452        0.857416493133695        0.000000000000000
Se          4.953742139075754        8.538389424592559        8.320124539411946        0.087819667238427        0.296263207379861        0.051177574170995
Se          4.953742139075754        8.538389424592559       11.679887983811883        0.087819667238427        0.296263207379861       -0.051177574170995
Mo          3.359483283978162        9.594542431479486       10.000007589386426       -0.901187744230625       -0.426723096929451        0.000000000000000
Se          3.230948072461778       11.501198745699678        8.317098541301871        0.344369597453109        0.021567708500590        0.124427050397681
Se          3.230948072461778       11.501198745699678       11.682917965245490        0.344369597453109        0.021567708500590       -0.124427050397681
Mo         11.579267903610210        0.874473620576438       10.000007589386426        0.065121444172932        0.858576061177298        0.000000000000000
Se         11.631368447638838        2.791113471343211        8.330040359458478       -0.092252251068077        0.092317042896677       -0.002297024590144
Se         11.631368447638838        2.791113471343211       11.669978802637907       -0.092252251068077        0.092317042896677        0.002297024590144
Mo         10.001616852093496        3.799817128312783       10.000007589386426       -0.741425750196482        0.145680569951645        0.000000000000000
Se          9.884516434663977        5.704505680707995        8.313976943427020        0.851565945277333        0.482256893132102        0.464013365393318
Se          9.884516434663977        5.704505680707995       11.686038235345832        0.851565945277333        0.482256893132102       -0.464013365393318
Mo          8.294980473501242        6.760678604212583       10.000007589386426       -0.256604180515613       -0.707677692139870        0.000000000000000
Se          8.230441337855593        8.675840641948854        8.329202533742173        0.147645922085858       -0.044893281017613        0.080107125641095
Se          8.230441337855593        8.675840641948854       11.670808661707147        0.147645922085858       -0.044893281017613       -0.080107125641095
Mo          6.548131116075403        9.594069743753648       10.000007589386426        0.803090344625236       -0.263430719567877        0.000000000000000
Se          6.658469177921501       11.522318327068200        8.346909734617979       -0.975588560967123       -0.661775252680762       -0.796693694213527
Se          6.658469177921501       11.522318327068200       11.653108099703893       -0.975588560967123       -0.661775252680762        0.796693694213527
