# total energy = -9259.89927587047 eV 

 CRYSTAL
 PRIMVEC
        3.850505334623600        0.000000000000000        0.000000000000000
       -1.925252667311800        3.334633882417403        0.000000000000000
        0.000000000000000        0.000000000000000       20.000006021201802
 PRIMCOORD
12 1
Se          1.900836612984952        3.330804939912653        8.297507467604547        1.850820235861632       -0.441624189065830      -30.832111066424616
Se         -0.014552984912210        3.331707883413622        8.314024980338480       -1.105419815513029        0.641518550267607      -32.870314155696938
Se          2.877675931932014        1.654348439241689        8.328122835520139       -1.314833947531315        0.777901492815087      -32.790720736696883
Se          0.954125958079185        1.661874251918211        8.324355886151276        0.522982156953517       -1.007324472791088      -32.532742043817393
Se          1.912326135852935        3.326248251899660       11.715289932318878       -0.050329623969708        0.466688599427396       34.273936562570512
Se         -0.013187210670019        3.320874486654659       11.738250495629238       -0.146221016077510       -0.706852624766938       32.997458349128934
Se          2.866571844648027        1.658409567218117       11.664134043695736        1.848724528738925        0.564417816895659       33.394386460877698
Se          0.948052170964350        1.662225418004729       11.685171279591453       -1.621983724778638        0.096088338697913       32.718044359620798
Mo          0.957106249208183        0.543771058709279       10.036382199951891       -1.987336618722778        0.488206428504381       -1.582525501160965
Mo          2.874012946207186        0.552032317904714       10.035989448407760        0.780259452577368       -2.329581969795343       -1.626918188169510
Mo         -0.024456869683395        2.219375057499157        9.963816731567176        2.445816453421100       -0.217776648785070        1.511038774048901
Mo          1.906652801292900        2.215967360278015       10.024279291584104       -1.222478080959564        1.668338421485795       -2.659532814280543
