# total energy = -9527.215562058283 eV 

 CRYSTAL
 PRIMVEC
        6.240481462007200        0.000000000000000        0.000000000000000
       -3.120240731003600        5.404412958134786        0.000000000000000
        0.000000000000000        0.000000000000000       20.000031670846408
 PRIMCOORD
12 1
Se          3.038514137680861        5.442684582844983        8.208046606452326        1.011585821073723        0.182749723444892       -0.336232823644702
Se         -0.019420378309766        5.405903185107912        8.240052163726522       -0.757757147660260        0.871147218588371       -1.100399220127788
Se          4.670955442845862        2.716626983629799        8.378492876624129       -1.109749555170298       -0.969377544286563       -4.050332609741575
Se          1.539715239217329        2.708470674358955        8.395659817077965       -0.122087859696860       -1.518056860372225       -3.556466666431031
Se          3.093294956098799        5.379719372989622       11.858787546300427       -0.493503674713330       -0.090176598558984       -1.377415911977713
Se         -0.089012979477778        5.403763324014590       11.684746758806510        1.794796130067152       -1.276820170314743        1.113512366327312
Se          4.623590812597374        2.657590780902918       11.856550333696298        0.259235448665998        0.275082450077857       -1.878916235314579
Se          1.620235547473462        2.638977920894336       11.750755451470891       -0.833996561088512        1.926309915273222        0.033183957771099
Mo          1.550033251266612        0.904768716191359       10.144303879450710       -1.895522226718616       -0.732955504159128       -3.516147379980092
Mo          4.635607483700615        0.867467486348504        9.939258507909102        0.439307624082933        0.330316198407585        2.818132926277203
Mo         -0.055132157524249        3.626333168753898        9.828703386424474        0.769435617655060        0.267133881104910        6.555742118849230
Mo          3.075589462094792        3.638308028631344        9.857355308960987        0.938256383503010        0.734647290794807        5.295339735103066
