# total energy = -9431.057398734665 eV 

 CRYSTAL
 PRIMVEC
        5.443805113637699        0.000000000000000        0.000000000000000
       -2.721902556818850        4.714471323538089        0.000000000000000
        0.000000000000000        0.000000000000000       19.999957500357748
 PRIMCOORD
12 1
Se          2.701428405786458        4.708226190311724        8.871004339076894       -2.178562758855366        1.113843524562381      -39.739246090037462
Se         -0.017772390554493        4.698493211149050        8.816008297916367        1.054319888692183        0.180119740846662      -34.871853040404758
Se          4.068215443277703        2.337360329299153        8.799746018900397        1.468310877080783       -1.800018042919830      -34.334765805209095
Se          1.346548603220274        2.349870193450292        8.870199200300586       -1.170512206207264        0.676635978479481      -40.014576908791618
Se          2.710703016558563        4.700237406307460       11.145588885327623        1.387813200695069       -1.522111491868372       37.480860569677638
Se         -0.026504798337279        4.703831406443483       11.174318566814845       -2.399650989991126       -0.120079570120677       35.762415438965768
Se          4.061317597818213        2.338127905820176       11.153539018315579       -0.827393193890316        1.927044479774458       36.764000435606668
Se          1.329149657696576        2.350922480978759       11.193910277038315        2.372991466515920       -0.302963762320958       34.019088446298319
Mo          1.332454591781066        0.782562227739737        9.972590422271651        3.765692850724289       -0.298356857619121        4.220969603673785
Mo          4.057682769143837        0.765044062884051       10.035518631863258       -1.721648726681555        1.222126353890019       -3.902716512465707
Mo         -0.014171857852333        3.128859107513438       10.004335971791830       -2.080572574299685        0.970827390006714       -0.340227034189575
Mo          2.712921367142370        3.130366497149405        9.962155192249320        0.329212423327499       -2.047067742710756        4.956050896876042
