# total energy = -9527.859934313365 eV 

 CRYSTAL
 PRIMVEC
        7.037104892651799        0.000000000000000        0.000000000000000
       -3.518552446325899        6.094308764658774        0.000000000000000
        0.000000000000000        0.000000000000000       19.999937665154004
 PRIMCOORD
12 1
Se          3.515475120356343        6.054911532917263        8.205328342486521        0.097434568914389        0.017863518521833        2.018871727300168
Se         -0.034306590062167        6.067833768631639        8.356236242067482        0.151630362434355       -0.017197602505662        0.649349105552747
Se          5.269294068675041        3.051860094371103        8.111033248056454        0.062617959906731       -0.058452770925274        2.437140261928552
Se          1.774786002346354        2.995309215743264        8.415480924448227        0.265753455201117       -0.000842036661375        0.237468993802280
Se          3.433877074284088        6.086881804155070       11.735175342165126        0.309818583520627        0.071958267642434       -1.976422538039204
Se          0.036311461246083        6.020092641618911       11.767244132871429       -0.062020949486056        0.358387515259161       -2.205201970606527
Se          5.285872080381150        3.046983380680496       11.910673701082970       -0.094017828397439       -0.123829268645712       -2.989364102415348
Se          1.669813508662667        3.080991597495214       11.745923816178163        0.589024056469265       -0.515939130918390       -1.319681507596525
Mo          1.763830637449474        1.002249108678594       10.032364144950325       -0.429074371820526       -0.421847511827267        0.630756421848728
Mo          5.289682672680521        1.046968502850417        9.860833305770960       -0.027197655607193       -0.232056047899402        1.643009444490776
Mo          0.039736420197337        3.990367810642546        9.960066336704198       -1.186651027958256        0.491984666287253        1.091440207161190
Mo          3.509863732914942        4.007249121569529       10.073897138026757        0.322682589712556        0.429970144561971       -0.217366300537267
