# total energy = -9522.507845762855 eV 

 CRYSTAL
 PRIMVEC
        7.568240097473099        0.000000000000000        0.000000000000000
       -3.784120048736550        6.554285130414141        0.000000000000000
        0.000000000000000        0.000000000000000       20.000020487584848
 PRIMCOORD
12 1
Se          3.758851208699107        6.529267555947934        8.683245449489508       -0.006128227121792        0.116866203954612       -3.110175923043383
Se         -0.013971728043945        6.530771365255302        8.734875226610461        0.064533432617340       -0.018107002099947       -3.353835621802177
Se          5.634911973501323        3.265742525148247        8.713613769704629       -0.014491258109438       -0.047605281843318       -3.323237937856046
Se          1.852617384276284        3.254349296505511        8.674506402648957        0.045540170861894       -0.035248811642092       -3.140712928927808
Se          3.760287660669607        6.527270297386210       11.304142131724639        0.014273999795282        0.082136241162186        3.320761707295527
Se         -0.040884389830559        6.539867633028455       11.330581778505161        0.122401277312193       -0.081254352384013        3.249429503552466
Se          5.644440387784042        3.256424507940238       11.282316084107535       -0.038352648764570        0.103630930300384        3.524807887736352
Se          1.849950336465934        3.264271259273298       11.271930945045781        0.033074942948374       -0.019818586238809        3.517651990222035
Mo          1.879604214815854        1.067298950561988        9.993976842786719       -0.315453158614987        0.075970218807043       -0.155899938250780
Mo          5.657407810367052        1.080849884456513        9.966584354577925        0.031619697909174       -0.266374634002302       -0.520701844541385
Mo         -0.032703122285191        4.342709145610747       10.030735028116135        0.079703462264497        0.162527216719054        0.420551675255258
Mo          3.744025026348157        4.359500799915010        9.970140670599728       -0.016721691097966       -0.072722399843230       -0.428638826750490
