# total energy = -9472.296632028203 eV 

 CRYSTAL
 PRIMVEC
        6.107710890233100        0.000000000000000        0.000000000000000
       -3.053855445116550        5.289430323714121        0.000000000000000
        0.000000000000000        0.000000000000000       20.000047449589029
 PRIMCOORD
12 1
Se          3.023330327629343        5.275866319369091        8.899056921287430       -0.069827850611548        0.422744055900004      -24.818975829502772
Se         -0.027338113944683        5.272741003706559        8.918954621825632       -0.414539147827395        0.603675237266757      -25.129047666797888
Se          4.552624788157583        2.638468195158529        8.926969770826885       -0.029442486779854       -0.440624800820711      -25.703322069174604
Se          1.499051519284162        2.632440495280959        8.921376329193610        0.158603968653125        0.024852037145598      -24.633220742230456
Se          3.038486001432367        5.267004641638451       11.102565706940188       -1.091549993315207        0.350572900820740       25.175985747072879
Se         -0.033823281367933        5.284185632372678       11.125926479553153        0.347587334496500       -0.435650228202610       24.502833100711964
Se          4.565469304159743        2.623554997477847       11.074222874554062       -0.328019173817441        0.266539956009405       26.049075177856675
Se          1.498551297762252        2.621096643844529       11.118858636510975        0.029349155693418        1.105438327464058       24.219146450062226
Mo          1.493522819386323        0.868192169142875       10.005836433248749        0.414217245567840       -0.321954195861663       -0.540569795982937
Mo          4.546060831263850        0.868978842305537        9.992338392181333        0.704752803877336       -1.389372061237944        0.131857541852256
Mo         -0.033602182233706        3.521427587691811        9.984599922483408        1.545617041687064        0.358078725631585        0.490806586292621
Mo          3.033936367590233        3.522660734520549        9.990746722723340       -1.266748897623837       -0.544299697004789        0.255431499840031
