# total energy = -9514.950458865473 eV 

 CRYSTAL
 PRIMVEC
        5.443805113637699        0.000000000000000        0.000000000000000
       -2.721902556818850        4.714471323538089        0.000000000000000
        0.000000000000000        0.000000000000000       19.999957500357748
 PRIMCOORD
12 1
Se          2.727683333469021        4.699032147855301        7.954807583407576       -0.192869847117679        0.523441870404063       -0.213266417605272
Se          0.009828790132673        4.695196987152744        8.085980967045279       -0.164215918029561        0.092999156869999       -1.727709590870437
Se          4.007145204371382        2.355299844670635        8.004540553784237        0.884748874606708        0.071433505252857       -0.735702472003443
Se          1.363008492361868        2.389461354900245        7.817890440994475       -0.583265039926323       -0.757730408175441        0.033400187643531
Se          2.632515276852919        4.749390611439518       11.945936568754123        0.800841913906541       -0.125569134931979       -0.188351131293659
Se          0.042600496916772        4.683153657099842       12.022520019092781       -0.806727685891944       -0.171551278624683        0.515252388957311
Se          4.035040350534683        2.314272607431704       12.194998274030208        0.048898290200586        0.520549892276691        0.103285116770751
Se          1.351325542207491        2.345312095428643       11.939829163797134       -0.589264454722207       -0.374332732855645        0.186696111449607
Mo          1.389262331283409        0.762681995845244        9.877912852496287       -1.763266420808812        0.688167638418206        0.461647949428540
Mo          3.988243768636319        0.811676241867983        9.937213854740676        2.167457130900732       -0.059339544801635       -0.344022498371321
Mo          0.017524153041311        3.154532636809865        9.884914674633448        0.045117224202974       -1.309446712671533       -0.638913507381180
Mo          2.728919621610329        3.105632024235081       10.109340984248277        0.152545418458121        0.901378005949531        2.547683606165139
