# total energy = -9358.605026019368 eV 

 CRYSTAL
 PRIMVEC
        4.116046478171800        0.000000000000000        0.000000000000000
       -2.058023239085900        3.564599151258733        0.000000000000000
        0.000000000000000        0.000000000000000       19.999952158366341
 PRIMCOORD
12 1
Se          2.054117934187410        3.549022384966740        8.261356400384811       -0.793396510046971        0.277989340610225      -22.774371461830988
Se         -0.007810609796979        3.556184717443406        8.232846604453753        0.461605269097002       -0.493581064953047      -22.530768584477435
Se          3.076436038947557        1.776612434210476        8.232639155711253        0.428532383032075       -0.458947518572228      -22.339530874375452
Se          1.013317134321681        1.767499507307804        8.235957923986602       -0.208161747109108        0.592748558172067      -22.735832665114408
Se          2.046534118551379        3.557891641917904       11.737388933154129        0.228007072832736       -0.375530610353460       20.282674680447840
Se         -0.009422453597831        3.550418959536783       11.793428905954437       -0.189146373856600        0.353909937104094       20.964925179408066
Se          3.077458053288087        1.770760650932460       11.742723329389840       -0.538271742951068       -0.082220573383538       21.450505481970684
Se          1.023519167122477        1.768235456418101       11.806975226518750        0.245384909750497       -0.053775932186218       20.899802192572551
Mo          1.018987811554658        0.587378354644268        9.977124612345655        0.532657222470322        0.387433794864914        2.839855672367658
Mo          3.074964552331611        0.581163536066876        9.983834179709723       -0.353622230531856       -0.275316677680457        1.239206456928735
Mo         -0.015929099870525        2.365604279074188       10.016104807307887        1.035094456217585        0.318782224474982        0.793633051643449
Mo          2.051792779531891        2.361322355922945        9.979173991887137       -0.848682708904613       -0.191491478097333        1.909900870459296
