# total energy = -38121.57239721111 eV 

 CRYSTAL
 PRIMVEC
       13.277745107833699        0.000000000000000        0.000000000000000
       -6.638872553916849       11.498859207011680        0.000000000000000
        0.000000000000000        0.000000000000000       20.000015178772852
 PRIMCOORD
48 1
Mo          1.634851577441262        0.943875066480574       10.009956603795727        0.153212877136878        0.088457558217625       -0.145820438026084
Se          1.668287595171808        2.879656114594800        8.408098895172920       -0.543983194064284       -0.314105642846356       -0.903222001960334
Se          1.601641281377548        2.841178537046809       11.747087979577142        0.390807340829464        0.225591006113060       -0.721297602998805
Mo         -0.024865233263440        3.818589204346238       10.009956603795727        0.153229846425321        0.088474013285206       -0.145832522216339
Se          0.008569456692596        5.754371580234976        8.408098895172920       -0.544014304426430       -0.314083531349294       -0.903234343261020
Se         -0.058076857101665        5.715892674912473       11.747087979577142        0.390780601344644        0.225620059591758       -0.721291689458893
Mo         -1.684584699517163        6.693304669986414       10.009956603795727        0.153247072824195        0.088477355720808       -0.145829179780736
Se         -1.651148681786616        8.629085718100640        8.408098895172920       -0.544011476211689       -0.314088673557913       -0.903234343261020
Se         -1.717794995580877        8.590606812778137       11.747087979577142        0.390782915338523        0.225615945824862       -0.721291689458893
Mo         -3.344301510221865        9.568020135626588       10.009956603795727        0.153235759965233        0.088463985978398       -0.145832522216339
Se         -3.310866820265829       11.503798528191792        8.408098895172920       -0.544015075757722       -0.314050621214132       -0.903222001960334
Se         -3.377513134060089       11.465318295094781       11.747087979577142        0.390771088258699        0.225653741058213       -0.721297602998805
Mo          4.954287854399686        0.943875066480574        9.990062558300659        0.153232160419199        0.088430818732805        0.145745618890676
Se          4.921077558335972        2.841178537046809        8.252928526970223        0.390769031375252        0.225610546505812        0.721324085373193
Se          4.987723872130233        2.879656114594800       11.591917611374441       -0.544023046181082       -0.314091758883085        0.903279851807299
Mo          3.294569715920474        3.818589204346238        9.990062558300659        0.153199250284037        0.088487640138046        0.145745618890676
Se          3.261359419856760        5.715892674912473        8.252928526970223        0.390802455731276        0.225598976536420        0.721332570017415
Se          3.328005733651021        5.754371580234976       11.591917611374441       -0.543988079162472       -0.314103585962909        0.903264425181441
Mo          1.634851577441262        6.693304669986414        9.990062558300659        0.153221876001961        0.088473499064344        0.145749475547140
Se          1.601641281377548        8.590606812778137        8.252928526970223        0.390776230467318        0.225614660272708        0.721324342483624
Se          1.668287595171808        8.629085718100640       11.591917611374441       -0.544020732187203       -0.314090473330930        0.903279337586437
Mo         -0.024865233263440        9.568020135626588        9.990062558300659        0.153231131977475        0.088457301107194        0.145749475547140
Se         -0.058076857101665       11.465318295094781        8.252928526970223        0.390775716246456        0.225645256413991        0.721332570017415
Se          0.008569456692596       11.503798528191792       11.591917611374441       -0.544015847089015       -0.314055763422751        0.903264425181441
Mo          8.273725459132622        0.943875066480574       10.009956603795727        0.153241930615576        0.088433904057977       -0.145823780461686
Se          8.307160149088658        2.879656114594800        8.408098895172920       -0.544016104199446       -0.314090473330930       -0.903234857481882
Se          8.240513835294397        2.841178537046809       11.747087979577142        0.390780087123783        0.225607975401503       -0.721290661017169
Mo          6.614007320653410        3.818589204346238       10.009956603795727        0.153243987499023        0.088475555947791       -0.145829179780736
Se          6.647442010609446        5.754371580234976        8.408098895172920       -0.544018418193325       -0.314086616674466       -0.903234857481882
Se          6.580795696815185        5.715892674912473       11.747087979577142        0.390772116700423        0.225621345143913       -0.721290661017169
Mo          4.954287854399686        6.693304669986414       10.009956603795727        0.153206963596966        0.088494582119682       -0.145823780461686
Se          4.987723872130233        8.629085718100640        8.408098895172920       -0.543991421598075       -0.314108728171528       -0.903227401279384
Se          4.921077558335972        8.590606812778137       11.747087979577142        0.390802969952137        0.225595119879955       -0.721294774784064
Mo          3.294569715920474        9.568020135626588       10.009956603795727        0.153233960192216        0.088469642407879       -0.145828151339012
Se          3.328005733651021       11.503798528191792        8.408098895172920       -0.544021760628927       -0.314056020533182       -0.903227401279384
Se          3.261359419856760       11.465318295094781       11.747087979577142        0.390772630921285        0.225647827518301       -0.721294774784064
Mo         11.593157752767514        0.943875066480574        9.990062558300659        0.153253243474538        0.088437503604010        0.145750246878433
Se         11.559948784478310        2.841178537046809        8.252928526970223        0.390782401117661        0.225606946959779        0.721324599594055
Se         11.626597753821592        2.879656114594800       11.591917611374441       -0.544032816377458       -0.314091758883085        0.903278823365575
Mo          9.933443597611834        3.818589204346238        9.990062558300659        0.153236531296526        0.088471442180896        0.145756931749638
Se          9.900231973773609        5.715892674912473        8.252928526970223        0.390774687804733        0.225613888941415        0.721326913587934
Se          9.966878287567869        5.754371580234976       11.591917611374441       -0.544021503518496       -0.314090987551792        0.903278823365575
Mo          8.273725459132622        6.693304669986414        9.990062558300659        0.153236788406957        0.088470927960034        0.145756931749638
Se          8.240513835294397        8.590606812778137        8.252928526970223        0.390772630921285        0.225623916248222        0.721324599594055
Se          8.307160149088658        8.629085718100640       11.591917611374441       -0.544027931279270       -0.314100500637737        0.903278823365575
Mo          6.614007320653410        9.568020135626588        9.990062558300659        0.153215705351618        0.088502552543041        0.145750246878433
Se          6.580795696815185       11.465318295094781        8.252928526970223        0.390793971087054        0.225625201800377        0.721344654207670
Se          6.647442010609446       11.503798528191792       11.591917611374441       -0.543993992702384       -0.314075046705073        0.903243856346965
