# total energy = -9524.77099268071 eV 

 CRYSTAL
 PRIMVEC
        7.169928382150800        0.000000000000000        0.000000000000000
       -3.584964191075400        6.209337227152147        0.000000000000000
        0.000000000000000        0.000000000000000       20.000070686449963
 PRIMCOORD
12 1
Se          3.568868418850310        6.187203658236447        8.664375196656286       -0.081251009948410        0.111306190885228       -4.883511302549221
Se         -0.028210083219572        6.188730852981845        8.640512958007648       -0.142035258261577        0.031334305330815       -4.307320399020170
Se          5.337487558746535        3.098863122565045        8.668102125429327        0.255618419123335       -0.036133271524574       -4.603628086504587
Se          1.775199700165363        3.094291576228586        8.653628191004278       -0.255881957315063       -0.048232117073984       -4.654640852889341
Se          3.558313567278945        6.185510838145421       11.343777433066037       -0.179486220744791        0.001073950270096        4.622896199310723
Se         -0.027080819499384        6.197324012147853       11.363971536354367        0.071529407443603        0.137919434482862        4.282938102631926
Se          5.353083586963390        3.093654886588251       11.402364351862269       -0.102022190333904       -0.081183904125931        3.791840210221034
Se          1.768937484716393        3.082238209625352       11.335480391942214       -0.042891419202204        0.118284939312617        4.795603189322545
Mo          1.751589126002941        1.023841395214635       10.018977577017786        0.449099931956253       -0.157890230096796        0.256695197608171
Mo          5.350939061384288        1.021967175935541        9.974360546681337       -0.114025390802999        0.089529708714703        0.233347256483654
Mo         -0.029122815102620        4.131086164058415       10.019049993294445       -0.073307326073651       -0.108166358302416        0.238750432190156
Mo          3.553234390013030        4.121349401315454        9.977718941135537        0.214653014159408       -0.057842647872620        0.227030053195110
