# total energy = -9504.161343024114 eV 

 CRYSTAL
 PRIMVEC
        9.427081020035398        0.000000000000000        0.000000000000000
       -4.713540510017699        8.164087840376157        0.000000000000000
        0.000000000000000        0.000000000000000       19.999967175569981
 PRIMCOORD
12 1
Se          4.695718613349322        8.137216888636647        8.401453256087731        0.113057112920026       -0.106944826644953        1.677267609642402
Se         -0.038972495644928        8.152275707858051        8.457419007979373       -0.099972505978338        0.034511676036546        1.546228193181442
Se          7.026190140436579        4.060758513952940        8.433502503431543       -0.105690384852327        0.036193949586279        1.580948642887923
Se          2.329062178474762        4.075658015505106        8.430997728004520        0.013258156482582        0.076753377179729        1.640895739637902
Se          4.662481553796984        8.152418056781455       11.588580604211439       -0.040043664068956        0.058216229328796       -1.595035466289470
Se         -0.013580652917463        8.134433071611431       11.540518517046992        0.079466920668019       -0.030332088870955       -1.502913827320318
Se          7.036665512866042        4.075689124872472       11.534833987191911        0.061048043615325       -0.036405551470955       -1.507121182412452
Se          2.346103512834679        4.051648182855178       11.575931346898754       -0.017216628677553       -0.041140497167406       -1.543622378963721
Mo          2.325453491860292        1.324058039674624        9.990521626565180        0.010756986210260       -0.022600006880871       -0.177278670584618
Mo          7.021562386363844        1.352023475520559        9.998051036175882       -0.023391392787348       -0.017922396810522        0.221107257307650
Mo         -0.030809586189680        5.432795682479034        9.993554318529325       -0.000577984248785        0.052705067241294        0.022615433506728
Mo          4.689673026291174        5.434773484077038        9.977657431805239        0.009305597827524       -0.003034931526983       -0.363091350593467
