# total energy = -9516.361653841883 eV 

 CRYSTAL
 PRIMVEC
        8.099322384569499        0.000000000000000        0.000000000000000
       -4.049661192284749        7.014215668096800        0.000000000000000
        0.000000000000000        0.000000000000000       19.999964538468078
 PRIMCOORD
12 1
Se          3.986081511565879        7.009428158635281        8.325316157201664        0.026673407438478        0.045632473506607        2.677967117959094
Se         -0.080375245547752        6.970402383657471        8.010846196772700        0.078397855496112        0.011827594044753        3.248935851525034
Se          6.009076801255910        3.508616737808645        8.127063373668888        0.043842984907166       -0.087581068758502        3.217752470017190
Se          1.965866719250470        3.526372072340099        8.315034067434455        0.021099767516253       -0.036477542391622        2.611969441437470
Se          4.033800289259047        6.952343324536597       11.814362502332475        0.082476655372769        0.057144593052579       -1.926809480840566
Se          0.035314665461200        7.000876084129414       11.738161647541729       -0.243030035313388       -0.088218188406406       -1.922831211142412
Se          6.105340487525472        3.435849185776719       11.849625332130413       -0.047138626411136        0.232711422387905       -2.286879526759890
Se          2.091814422059480        3.443756554220774       11.699944184937900       -0.226659299953674        0.059462443587631       -1.217037624240574
Mo          1.962118352850892        1.109857435747705       10.188745886661053        0.058179462537170        0.092016737913323       -1.199834879526293
Mo          6.093689612275270        1.150563010188074       10.055045512465535        0.036417635661209       -0.044298584590816       -0.811256686133202
Mo         -0.079910344442878        4.720299664507396       10.190460513209867        0.268084932589009       -0.319444026724258       -1.305458672777003
Mo          4.058560727720914        4.635822112171859       10.186852265087541       -0.098344225619105        0.077223889268375       -1.086517056629279
