# total energy = -9524.13051913841 eV 

 CRYSTAL
 PRIMVEC
        6.107710890233100        0.000000000000000        0.000000000000000
       -3.053855445116550        5.289430323714121        0.000000000000000
        0.000000000000000        0.000000000000000       20.000047449589029
 PRIMCOORD
12 1
Se          3.069930940179643        5.273039059998001        8.369840874239225       -0.480351704838731        0.998116319816896       -5.762896853566225
Se          0.052679617199350        5.227697857433268        8.413918391420770       -1.639289313665301        0.798254611639850       -6.676003208934160
Se          4.624191890513889        2.593416498089992        8.386937578563167       -0.910141872099034        0.196800037165244       -5.424823119235891
Se          1.530966751769986        2.617014249885497        8.480003823253094       -2.350000651779999       -0.526064653910227       -7.906699053487882
Se          3.094608535260541        5.264171274556472       11.643683850200190       -0.989211557151229       -0.112025842981469        0.576306089002117
Se          0.013786935792523        5.236915003937718       11.847110933736829       -0.147337646679144        0.317424938509975       -1.122633615975841
Se          4.545549615862337        2.661890655651485       11.856757452316863       -0.026994795477170       -0.377871086606436       -1.660988919816970
Se          1.578352205169682        2.590478078380701       11.744601557239513       -0.745836736749932        0.577797586612083       -0.660367830181719
Mo          1.513026572572104        0.849975310641666        9.927573447443480        1.474056266770885       -0.692446984431007        5.430038347217366
Mo          4.528506048623142        0.840748391799791        9.909301619544259        1.580924731617844        0.980961911863634        6.810411029151052
Mo         -0.065091096499392        3.548760204696693        9.920013933674639        1.033767766393862       -1.712224600945360        7.407359743323187
Mo          2.999136463250951        3.527164560531006        9.819282511817470        3.200415513657950       -0.448721979622751        8.990297135394540
