# total energy = -9528.471353703784 eV 

 CRYSTAL
 PRIMVEC
        7.169928382150800        0.000000000000000        0.000000000000000
       -3.584964191075400        6.209337227152147        0.000000000000000
        0.000000000000000        0.000000000000000       20.000070686449963
 PRIMCOORD
12 1
Se          3.547827547020050        6.202149373949040        8.308880826562351       -0.023441786431815       -0.030081149090344        1.184866167346572
Se         -0.037635671070748        6.195167297690501        8.328461900974006        0.042295951444114        0.034945421333566        1.057377960157951
Se          5.343090140784348        3.090715932944408        8.328053932049059        0.055835129627730       -0.021567194279728        0.984081689832832
Se          1.750707224811936        3.100927344946267        8.318720836274014        0.088938611833940       -0.029859519898862        1.010542981165772
Se          3.557932127089015        6.193820068147495       11.688674649011153       -0.015628457545549        0.009269602367190       -1.470191125662351
Se         -0.038585686581383        6.205725734226057       11.719975688356270        0.000351984179976       -0.032283042821035       -1.665660616347407
Se          5.355622458603508        3.091681005304645       11.653080256550803       -0.004936263163889        0.017307388659679       -1.086285914351852
Se          1.774366554487358        3.082684179170722       11.668180125723612       -0.042369485027367        0.041518963721771       -1.301710259804122
Mo          1.753924371677007        1.027721760455055        9.967490321305560        0.058499565023708       -0.087652031237445        0.525924014504495
Mo          5.339706651580810        1.026222528430347        9.997904440509805        0.045375877296514       -0.126825633608052        0.188392783183474
Mo         -0.022915808102192        4.127765053231803        9.983507941311284       -0.069463010910024        0.074451981712258        0.370073698566889
Mo          3.564134115139575        4.119583447954930        9.983839192002542       -0.135458116327338        0.150774956030570        0.202589135628608
