# total energy = -9529.321537992935 eV 

 CRYSTAL
 PRIMVEC
        6.572434350304899        0.000000000000000        0.000000000000000
       -3.286217175152450        5.691892458222800        0.000000000000000
        0.000000000000000        0.000000000000000       20.000068893967864
 PRIMCOORD
12 1
Se          3.291871440424017        5.726574537045924        8.207086186602586       -1.031169151268208       -0.824583491100849       -0.504017691566338
Se         -0.045947888542982        5.722721118786341        8.202753637878866       -0.166399299809224       -0.990373439188711       -0.270460890081456
Se          4.863552125967998        2.822326214543274        8.158323324427370        0.401555071064210        0.788527095595130        0.673316425705432
Se          1.547356106013503        2.846570610374679        8.447322464218365       -0.253933831579723        1.049989891924484       -2.125339356985269
Se          3.249571910188890        5.676154106927561       11.594144221991764       -0.442114498657660        0.201328266075209       -0.750204014530119
Se         -0.065320138790505        5.652672770724227       11.530452075189830        0.160350519810596        2.597592083248944        1.926578338563138
Se          4.930057274671864        2.870255692042873       11.638248542699486       -1.273592920185406       -0.939189437256942        0.288888508888803
Se          1.575471008433802        2.799172842814020       11.716692518400681        0.800906962845573       -0.180804940145155       -0.659093076665048
Mo          1.580653372919018        0.911273280617254        9.821487038180114        0.383120767385658       -0.040795197858635        3.251105092230994
Mo          4.827469461384823        0.977494500157187        9.814863996085313        1.383465206197203       -0.238264236365222        1.857505364176871
Mo         -0.048321194586877        3.834135394443403       10.142413749558022       -0.008185624790288       -1.816174348180128       -4.828218675930805
Mo          3.270257990063039        3.774341358454634        9.904089393094747        0.045996541876838        0.392746981920582        1.139940233304228
