# total energy = -9519.103507722197 eV 

 CRYSTAL
 PRIMVEC
        6.904334320877699        0.000000000000000        0.000000000000000
       -3.452167160438850        5.979326130238110        0.000000000000000
        0.000000000000000        0.000000000000000       19.999950931310131
 PRIMCOORD
12 1
Se          3.414660745107545        5.961898899978782        7.817661758713228        0.000505993328118        0.050480033571816        3.963381718649342
Se         -0.022538508957073        5.975951291622065        7.798296481810030        0.012103216426736        0.000766446194674        3.978980865605761
Se          5.159890044398764        2.985390663041295        7.856118210447085        0.015171058088881       -0.059506923692186        3.954507295014527
Se          1.697428521487486        2.980806185052232        7.859297656401849       -0.008380257386520       -0.019669976409717        3.943095705647058
Se          3.428398299105796        5.962864125916841       12.193303657138999        0.026728171960271       -0.013897075903503       -3.961816430345693
Se         -0.032930912976858        5.953644768298172       12.144883560546685       -0.023966291710961        0.043727028102805       -3.942205332224664
Se          5.137767866801240        2.981963351484412       12.131230929860580        0.030034097881479       -0.007800730475149       -3.922620202257162
Se          1.699449420143207        2.975159130011187       12.158135739842178        0.023405533861050       -0.014244689206153       -3.955042084710913
Mo          1.689192341076111        0.988398955339864       10.019830259861614        0.048251914577168       -0.021321396707736        0.002989165870273
Mo          5.148858989454299        0.983138543020788        9.963711830501520        0.001676102899390        0.027570979952939       -0.028301173576848
Mo         -0.021600900356298        3.978155919405683        9.995018153612675       -0.037324207040754       -0.026755682776383       -0.007713570039056
Mo          3.444981819711112        3.963001596004788       10.036285359848563       -0.088205332884858        0.040652244459024       -0.025256214743058
