# total energy = -38122.08382193177 eV 

 CRYSTAL
 PRIMVEC
       13.277745107833699        0.000000000000000        0.000000000000000
       -6.638872553916849       11.498859207011680        0.000000000000000
        0.000000000000000        0.000000000000000       20.000015178772852
 PRIMCOORD
48 1
Mo          1.634851577441262        0.943875066480574        9.999403451984019       -0.065636693476564       -0.005813266843874        0.332894244698763
Se          1.679258995954411        2.912279534324748        8.331534105783108       -0.408345357545709       -0.510125092743223       -0.005420659215807
Se          1.590668552820434        2.808552461767840       11.670517879089285        0.358829488089971        0.494346996926859        0.082116700769433
Mo         -0.024865233263440        3.818589204346238        9.998865703307152        0.037158370812788       -0.002994565189323        0.663892299969238
Se          0.030688852267736        5.687762444127016        8.330899429566953       -0.545538969281988        0.498847457910281       -0.038739342852725
Se         -0.080197580451316        5.782500483245920       11.669888513971173        0.566221703679233       -0.503569548085185        0.067868926238108
Mo         -1.684584699517163        6.693304669986414       10.000486915984819       -0.057815394166938       -0.011544258349842       -0.335941003305569
Se         -1.722779461094358        8.552866150083631        8.329537132918890        0.300027561199461        0.545648498325574       -0.084554107654878
Se         -1.646165544047647        8.666827708569658       11.668518250676046       -0.347099081788118       -0.556199796191071        0.003952301544627
Mo         -3.344301510221865        9.568020135626588       10.001197275348089        0.045054232147391        0.006086575231978       -0.699314661152224
Se         -3.403771202785341       11.525778507443301        8.330023098389836        0.599892371496128       -0.464758214311792       -0.067696148028507
Se         -3.284610079315088       11.443347610264848       11.669008199470525       -0.584456232552933        0.450674219124986        0.037339633666611
Mo          4.954287854399686        0.943875066480574        9.999682284631284       -0.018720724698634       -0.041282679235724       -0.074949490396155
Se          4.958782371118688        2.788212284037149        8.330001853997665       -0.039727161128451        0.791557913355218       -0.051611319468015
Se          4.950017731573007        2.932622367604460       11.668988282852862        0.034902998112458       -0.784953003494436        0.056298442624309
Mo          3.294569715920474        3.818589204346238       10.001206569769662        0.034725591915100        0.039263076800579        0.166780594578329
Se          3.225987506889491        5.732034429640066        8.329546427340466        0.773939421074084        0.050754627512075       -0.036176466076974
Se          3.363377646618290        5.738228497732871       11.668528872872132       -0.779602021205418       -0.061225964033545        0.055109306881146
Mo          1.634851577441262        6.693304669986414       10.000466999367157       -0.028677069026903       -0.039198027861548        0.059327717721811
Se          1.623160522873814        8.681717371933582        8.330922001733637        0.110447184935410       -0.776890020379714       -0.056951760229363
Se          1.646765698126521        8.537976486719707       11.669908430588835       -0.108015948700308        0.784829847598009        0.053117472372544
Mo         -0.024865233263440        9.568020135626588        9.998853753336554        0.025692531144387        0.039900196448483       -0.163978605101790
Se          0.042665378355002       11.495417615479729        8.331526139136043       -0.769639763337237       -0.129369484211913       -0.058611665171604
Se         -0.092174106538582       11.473697880032333       11.670508584667710        0.761179030385829        0.121980387536721        0.031887864088659
Mo          8.273725459132622        0.943875066480574       10.001087070063694        0.053822469174220       -0.010443825705358        0.075415374497044
Se          8.223178411281609        2.913386898266741        8.330239525635095        0.569817907276989       -0.553144810050474       -0.055442264889232
Se          8.324494245326933        2.807446425600357       11.669228610039314       -0.561820744432591        0.559861562948720        0.056205625758734
Mo          6.614007320653410        3.818589204346238        9.999403451984019       -0.044237649418680        0.010253306876021       -0.066436564027262
Se          6.658413411392048        5.786994999964922        8.331534105783108       -0.525774376233679       -0.581456010934129       -0.060357959218644
Se          6.569822968258071        5.683267927408015       11.670517879089285        0.515528525560156        0.582213201153289        0.030874848990700
Mo          4.954287854399686        6.693304669986414        9.998865703307152        0.048393582424623       -0.005205457785098       -0.137002064465218
Se          5.009841939930863        8.562477909767191        8.330899429566953       -0.604175574165394        0.493719390364900       -0.058738163503633
Se          4.898956834986322        8.657214621111585       11.669888513971173        0.615259347733397       -0.495352041601459        0.051375806313261
Mo          3.294569715920474        9.568020135626588       10.000486915984819       -0.050269460128865        0.001440589744636        0.055397784784677
Se          3.256374954343280       11.427577632400274        8.329537132918890        0.451130847250360        0.632962429346315       -0.032980583420214
Se          3.332988871389990       11.541537863111790       11.668518250676046       -0.455663189927220       -0.627239408263706        0.060891206252443
Mo         11.593157752767514        0.943875066480574        9.998770103542375        0.025882278642432        0.047748749463790       -0.074824020505849
Se         11.662438371191168        2.855713684616354        8.331426556047735       -0.697834219290790       -0.001467586339886       -0.054508182693575
Se         11.524108167108736        2.865119639250743       11.670418296000976        0.723260384028709       -0.015543353992903        0.042221903640000
Mo          9.933443597611834        3.818589204346238        9.999682284631284       -0.037779806724405       -0.043852497993111       -0.050043717170487
Se          9.937936786556325        5.662926421902814        8.330001853997665        0.012434888882667        0.709234752909729       -0.048116674490486
Se          9.929172147010643        5.807336505470124       11.668988282852862        0.008853083469045       -0.662232137916567        0.055979625689926
Mo          8.273725459132622        6.693304669986414       10.001206569769662        0.036578843901418        0.046834721881748        0.179519387990384
Se          8.205141922327128        8.606749895280242        8.329546427340466        0.714607075364516        0.055634326381154       -0.036568045263318
Se          8.342532062055927        8.612942635598534       11.668528872872132       -0.697251607054248       -0.075592266473540        0.058988074842520
Mo          6.614007320653410        9.568020135626588       10.000466999367157       -0.027615974278356       -0.045132393718401        0.067759140084091
Se          6.602316266085961       11.556428854250225        8.330922001733637        0.093657616683672       -0.666329963965115       -0.050885753831862
Se          6.625920113564157       11.412687969036350       11.669908430588835       -0.061601088152308        0.707122847829871        0.054634938136036
