# total energy = -38122.83748998392 eV 

 CRYSTAL
 PRIMVEC
       26.555490215667398        0.000000000000000        0.000000000000000
       -3.319436276958425        5.749422964633285        0.000000000000000
        0.000000000000000        0.000000000000000       20.000028456517960
 PRIMCOORD
48 1
Mo          1.615205825779711        0.884037580377611       10.000008917160937        0.043725485440219        0.251728338302998        0.000000000000000
Se          1.590360509133932        2.794096980668941        8.322217112040940        0.140190748029911       -0.007305535785132        0.019507225506923
Se          1.590360509133932        2.794096980668941       11.677800722280931        0.140190748029911       -0.007305535785132       -0.019507225506923
Mo         -0.055461141315421        3.745912138724000       10.000008917160937        0.153035985160381        0.246464773560505        0.000000000000000
Se         -0.073540119054248        5.657482546408602        8.325318793298132        0.235749182129628        0.074365592607458        0.043559134991392
Se         -0.073540119054248        5.657482546408602       11.674699041023743        0.235749182129628        0.074365592607458       -0.043559134991392
Mo          4.923693274122216        0.871195345309314       10.000008917160937       -0.334602229291591       -0.105895558976229        0.000000000000000
Se          4.905614296383389        2.782768408542938        8.325318793298132        0.074063230740656       -0.013857995117998        0.025102976926210
Se          4.905614296383389        2.782768408542938       11.674699041023743        0.074063230740656       -0.013857995117998       -0.025102976926210
Mo          3.254951580067720        3.737637447972798       10.000008917160937       -0.106126187032795        0.060081565505368        0.000000000000000
Se          3.244780827315119        5.651032217835216        8.328747107084974        0.121023936733571        0.052660844247169        0.019973880939105
Se          3.244780827315119        5.651032217835216       11.671270727236900        0.121023936733571        0.052660844247169       -0.019973880939105
Mo          8.234105995505356        0.862920654558112       10.000008917160937       -0.169242169844284       -0.055894265026849        0.000000000000000
Se          8.223935242752756        2.776318079969552        8.328747107084974        0.040332399082917        0.016559197305603        0.005284647797832
Se          8.223935242752756        2.776318079969552       11.671270727236900        0.040332399082917        0.016559197305603       -0.005284647797832
Mo          6.567852550884068        3.734448133597896       10.000008917160937       -0.047031668471859        0.007520222994978        0.000000000000000
Se          6.566237977078957        5.649866431814749        8.332284298381701        0.041751134440922        0.016448639820292       -0.037299010218520
Se          6.566237977078957        5.649866431814749       11.667730880391151        0.041751134440922        0.016448639820292        0.037299010218520
Mo         11.547009621870727        0.859733995732232       10.000008917160937       -0.002867038415570        0.003292813289230        0.000000000000000
Se         11.545389736967572        2.775152293949084        8.332284298381701        0.002874494618068        0.046158007227477       -0.015587834097458
Se         11.545389736967572        2.775152293949084       11.667730880391151        0.002874494618068        0.046158007227477        0.015587834097458
Mo          9.883653381231968        3.736546017324934       10.000008917160937        0.021759512882082       -0.040383821169108        0.000000000000000
Se          9.890703863884228        5.654059543719802        8.335712612168543       -0.041567557593221       -0.021727631188643       -0.093891587175841
Se          9.890703863884228        5.654059543719802       11.664310533251372       -0.041567557593221       -0.021727631188643        0.093891587175841
Mo         14.862813107767650        0.861831879459270       10.000008917160937        0.167201741464232        0.063872915920219        0.000000000000000
Se         14.869863590419907        2.779342750305116        8.335712612168543       -0.034754388283367        0.073333294227177       -0.036234573034370
Se         14.869863590419907        2.779342750305116       11.664310533251372       -0.034754388283367        0.073333294227177        0.036234573034370
Mo         13.202582448327274        3.743800977251854       10.000008917160937        0.089179781418175       -0.086345653137767        0.000000000000000
Se         13.217862477397368        5.663343343099200        8.338814293425733       -0.123386781594040       -0.058867747160834       -0.147029371272430
Se         13.217862477397368        5.663343343099200       11.661200885347119       -0.123386781594040       -0.058867747160834        0.147029371272430
Mo         18.181736863764911        0.869086839386190       10.000008917160937        0.328269342266759        0.119888022849616        0.000000000000000
Se         18.197016892835006        2.788629205233535        8.338814293425733       -0.070865034090017        0.096043344372496       -0.055037830181341
Se         18.197016892835006        2.788629205233535       11.661200885347119       -0.070865034090017        0.096043344372496        0.055037830181341
Mo         16.524674274307266        3.755753603397927       10.000008917160937        0.150564382587619       -0.127022065977301        0.000000000000000
Se         16.547225196598408        5.677141575815261        8.341395487074696       -0.198363268585445       -0.092144007576645       -0.192562085931826
Se         16.547225196598408        5.677141575815261       11.658619691698155       -0.198363268585445       -0.092144007576645        0.192562085931826
Mo         21.503828689744903        0.881039465532262       10.000008917160937        0.475629871774258        0.163178220330230        0.000000000000000
Se         21.526379612036045        2.802424782400574        8.341395487074696       -0.103167360193374        0.113068939999850       -0.071690358573380
Se         21.526379612036045        2.802424782400574       11.658619691698155       -0.103167360193374        0.113068939999850        0.071690358573380
Mo         19.849756248485541        3.771655030939068       10.000008917160937        0.203869802685191       -0.164609554099352        0.000000000000000
Se         19.878178589663367        5.694580566239889        8.343291549076095       -0.257100146536923       -0.125265230402591       -0.227470226252904
Se         19.878178589663367        5.694580566239889       11.656728940794800       -0.257100146536923       -0.125265230402591        0.227470226252904
Mo         24.828910663923178        0.896940893073404       10.000008917160937        0.500976589389012        0.166141418046977        0.000000000000000
Se         24.857330349551987        2.819866428374225        8.343291549076095       -0.321481369779138       -0.084257402217557       -0.200418352260062
Se         24.857330349551987        2.819866428374225       11.656728940794800       -0.321481369779138       -0.084257402217557        0.200418352260062
Mo         23.177480493940276        3.790506773443171       10.000008917160937        0.211988578763430       -0.242585491378268        0.000000000000000
Se         23.209979102866210        5.714568883725223        8.344382979723958       -0.348465109507778       -0.214928379430960       -0.241176526216639
Se         23.209979102866210        5.714568883725223       11.655629543499870       -0.348465109507778       -0.214928379430960        0.241176526216639
