# total energy = -9474.86557149997 eV 

 CRYSTAL
 PRIMVEC
        5.178263970089500        0.000000000000000        0.000000000000000
       -2.589131985044750        4.484506054696759        0.000000000000000
        0.000000000000000        0.000000000000000       19.999998575148734
 PRIMCOORD
12 1
Se          2.568906721630374        4.471747847927253        8.524458665387732        1.018561998396802        0.718180910354779      -18.953816901570562
Se         -0.016021030897060        4.475115272987002        8.500222836528522       -1.351379367076709       -0.336676596248529      -17.075338268209467
Se          3.862212324702430        2.223731930606560        8.514883019654242        0.922315279673421        0.381722857972560      -18.904934295106262
Se          1.273829116627754        2.238568174707264        8.519858295676704       -0.416331207531145       -1.044416509112690      -18.199243809487239
Se          2.580147697056645        4.471419028165152       11.506034706280861       -1.227950933592854       -0.555201436387676       16.900888840807067
Se         -0.006894340649777        4.468675066087402       11.504430997929322        0.310557261788758        0.162542129124050       17.432053023004840
Se          3.869098380129854        2.232799070818187       11.473700072572431       -0.607783347732543       -0.591169128794716       18.143462415939577
Se          1.279790851936518        2.229873869501484       11.509824677680568        0.731801335434575        0.806464661921078       17.242555693409987
Mo          1.271221860718815        0.738911341559127       10.033214226157712        1.083544345826587       -0.303210331224243       -2.410126440279492
Mo          3.859200128551028        0.729999031440206        9.977864280407822        0.299968168689911       -0.368375484170437        3.020198585068388
Mo         -0.015401192699840        2.972520292862237       10.011708895889930        0.258304451795513        1.002439888823821       -0.913982073495766
Mo          2.579010550288813        2.977196783053624        9.972515651553117       -1.021607728561885        0.127699294852434        3.718282715698065
