# total energy = -9528.426123193247 eV 

 CRYSTAL
 PRIMVEC
        6.506022605555400        0.000000000000000        0.000000000000000
       -3.253011302777700        5.634378226976116        0.000000000000000
        0.000000000000000        0.000000000000000       19.999994935150113
 PRIMCOORD
12 1
Se          3.284939608714463        5.583537563927264        8.239143750586008       -0.895239237300069        0.085513643783199        1.498287382225729
Se         -0.038900810363137        5.568156675885469        7.916218619763787        0.148159371616474        0.112876364287065        3.184075888660383
Se          4.900457238524790        2.763991318449213        8.147496012550592       -0.331726192010938        0.073425853982320        2.686099520890174
Se          1.647414706838584        2.774963725573482        8.240308328632402       -0.177915790232523        0.370890024185169        1.230448761429574
Se          3.254272820560917        5.573935325163724       11.870756123235230       -0.065048681920972        0.873578711933905       -1.176914770158884
Se         -0.056137216052035        5.642955116577020       11.812189558342281       -0.133380921155659       -0.250442786148227       -1.197586448807599
Se          4.849174165938761        2.838187952049748       11.816595436850763        0.122815482216460       -0.048842497237069       -1.027572947670452
Se          1.573195302158929        2.856057393738167       11.812583823312178       -0.238205615186964       -0.826517475762486       -0.915066051072668
Mo          1.608094258017389        0.904011190439662        9.918615582608945        0.490968822974553       -0.057336397434071        1.149523510397183
Mo          4.843955685206844        0.912772200480303       10.177180535407970        0.341987983531180       -0.036362099808123       -2.589069900904538
Mo          0.013481129440971        3.737636468836135       10.019823270260964       -0.770905003767963        0.466158951939631       -0.931816024318039
Mo          3.149481615657757        3.781804555100729       10.123580017569841        1.508490038346852       -0.762942293721312       -1.910408920670861
