# total energy = -9518.834002245312 eV 

 CRYSTAL
 PRIMVEC
        7.169928382150800        0.000000000000000        0.000000000000000
       -3.584964191075400        6.209337227152147        0.000000000000000
        0.000000000000000        0.000000000000000       20.000070686449963
 PRIMCOORD
12 1
Se          3.574147637118087        6.188373073555575        7.907777825036718       -0.029729936241661        0.039062273554004        3.862688532133039
Se         -0.037921751213196        6.196299429382043        7.877948054995617        0.028747003064123       -0.002358473983143        3.883964934515358
Se          5.352842677369749        3.081907675926935        7.891082646798879        0.032811661867077       -0.007267483441350        3.864961645453105
Se          1.764816209882333        3.083704459979502        7.911759286267325       -0.013335546722299       -0.003311582350690        3.848471867963860
Se          3.563176929700558        6.189683736463833       12.111214302413741       -0.018911757748833        0.002633067923402       -3.881113065615215
Se         -0.016595516233326        6.197189217494268       12.112218809380078        0.004503546308593       -0.036859351381589       -3.875603703300729
Se          5.339770463943412        3.091009900008076       12.070869832400216        0.063068674492194        0.003881596176115       -3.822958799900278
Se          1.772001195114086        3.097870804476956       12.092698679359673       -0.024261197375266        0.013787032639055       -3.849707283584595
Mo          1.751125948629454        1.024240043232683        9.972992524346024        0.057289603335637       -0.018873191184190       -0.002061254324960
Mo          5.366997549981791        1.009288591577383        9.996919292350098       -0.033843703136927        0.043492543389775        0.010021650377731
Mo         -0.017217149024059        4.123269508136194       10.007511427549050       -0.034754902504229       -0.011485894282015       -0.023484209652922
Mo          3.567630172218712        4.131226694654705       10.019366187136097       -0.031583188227978       -0.022700279948943       -0.015180314064396
