# total energy = -38122.64446009501 eV 

 CRYSTAL
 PRIMVEC
       26.555490215667398        0.000000000000000        0.000000000000000
       -3.319436276958425        5.749422964633285        0.000000000000000
        0.000000000000000        0.000000000000000       20.000028456517960
 PRIMCOORD
48 1
Mo          1.679852511160731        0.942090537538081       10.000008917160937       -1.072575500621221        0.302270592599105        0.000000000000000
Se          1.629288202241079        2.850588475004730        8.330515702733337        0.043958427490664        0.201505929382998       -0.011091229770501
Se          1.629288202241079        2.850588475004730       11.669499476039515        0.043958427490664        0.201505929382998        0.011091229770501
Mo         -0.013288367303920        3.838646566106132       10.000008917160937       -0.388710348154602       -0.375466846966584        0.000000000000000
Se         -0.066524158539268        5.747391469631787        8.330730802204084        0.682689129355435       -0.087533246218344       -0.201044159049004
Se         -0.066524158539268        5.747391469631787       11.669289687666812        0.682689129355435       -0.087533246218344        0.201044159049004
Mo          4.965868703682738        0.963932428240468       10.000008917160937       -1.281344799678674        0.043638582114557        0.000000000000000
Se          4.912630256898368        2.872674676217101        8.330730802204084        0.099621807350516        0.199681473764947       -0.016114139149621
Se          4.912630256898368        2.872674676217101       11.669289687666812        0.099621807350516        0.199681473764947        0.016114139149621
Mo          3.270523719530187        3.856669777315505       10.000008917160937       -0.129123172419059       -0.331631575372347        0.000000000000000
Se          3.224768609888592        5.767143443254200        8.330903412890486        0.596563048525703       -0.073371089460527       -0.189829259161215
Se          3.224768609888592        5.767143443254200       11.669109110333345        0.596563048525703       -0.073371089460527        0.189829259161215
Mo          8.249680790516845        0.981952983900820       10.000008917160937       -1.002029540576018       -0.026858012727903        0.000000000000000
Se          8.203923025326230        2.892429305388536        8.330903412890486        0.097928735162683        0.128486052771154       -0.026896322182115
Se          8.203923025326230        2.892429305388536       11.669109110333345        0.097928735162683        0.128486052771154        0.026896322182115
Mo          6.558913972877474        3.867443339696002       10.000008917160937       -0.064319773849217       -0.201686420905528        0.000000000000000
Se          6.529370990012545        5.780803587421140        8.331004323753305        0.423510244984247       -0.055816103455839       -0.137806048782812
Se          6.529370990012545        5.780803587421140       11.669018821666610        0.423510244984247       -0.055816103455839        0.137806048782812
Mo         11.538071043864134        0.992729201830337       10.000008917160937       -0.538376644006898       -0.082911429111512        0.000000000000000
Se         11.508520094352139        2.906089449555476        8.331004323753305        0.078045871316136        0.034940793345809       -0.032918619806354
Se         11.508520094352139        2.906089449555476       11.669018821666610        0.078045871316136        0.034940793345809        0.032918619806354
Mo          9.857788333761908        3.868919824951993       10.000008917160937       -0.010140435396832       -0.030428505282563        0.000000000000000
Se          9.850100519344473        5.785772119640491        8.331009634851348        0.168411446041871       -0.031289311005398       -0.069772314758462
Se          9.850100519344473        5.785772119640491       11.669010855019545        0.168411446041871       -0.031289311005398        0.069772314758462
Mo         14.836942749199546        0.994205687086329       10.000008917160937        0.012389380336388       -0.112905931986625        0.000000000000000
Se         14.829252279233089        2.911055326225805        8.331009634851348        0.043709544593500       -0.062094740179740       -0.033723375455241
Se         14.829252279233089        2.911055326225805       11.669010855019545        0.043709544593500       -0.062094740179740        0.033723375455241
Mo         13.171071703637363        3.860815089338172       10.000008917160937        0.044534354856001        0.147131701223950        0.000000000000000
Se         13.186720854021456        5.781098353362534        8.330922001733637       -0.111663317273823       -0.009822646904173       -0.008489529319675
Se         13.186720854021456        5.781098353362534       11.669101143686280       -0.111663317273823       -0.009822646904173        0.008489529319675
Mo         18.150226119074997        0.986100951472507       10.000008917160937        0.540949548089456       -0.109356779597734        0.000000000000000
Se         18.165875269459093        2.906384215496869        8.330922001733637        0.002277741307823       -0.143612373645049       -0.029370238748756
Se         18.165875269459093        2.906384215496869       11.669101143686280        0.002277741307823       -0.143612373645049        0.029370238748756
Mo         16.499913935230179        3.844674662385088       10.000008917160937        0.088928584527133        0.296932722942066        0.000000000000000
Se         16.535955046550882        5.767677208607536        8.330757357694301       -0.359519058265790        0.004457523541452        0.033748829387905
Se         16.535955046550882        5.767677208607536       11.669260476627574       -0.359519058265790        0.004457523541452       -0.033748829387905
Mo         21.479068350667816        0.969957868970403       10.000008917160937        0.957241674835096       -0.062954774571281        0.000000000000000
Se         21.515109461988516        2.892960415192849        8.330757357694301       -0.034851576026268       -0.188190437274313       -0.025669391205602
Se         21.515109461988516        2.892960415192849       11.669260476627574       -0.034851576026268       -0.188190437274313        0.025669391205602
Mo         19.842546432891986        3.823568358761676       10.000008917160937        0.121928965450530        0.387834115805910        0.000000000000000
Se         19.892128188673659        5.748060667985222        8.330547569321597       -0.529325842616449        0.010236080477147        0.058464598005098
Se         19.892128188673659        5.748060667985222       11.669470265000276       -0.529325842616449        0.010236080477147       -0.058464598005098
Mo         24.821700848329623        0.948851565346990       10.000008917160937        1.230875050524096        0.058988074842520        0.000000000000000
Se         24.871282604111297        2.873346530119557        8.330547569321597       -0.054733411431091       -0.137351477540885        0.064901357644035
Se         24.871282604111297        2.873346530119557       11.669470265000276       -0.054733411431091       -0.137351477540885       -0.064901357644035
Mo         23.194550363050904        3.801514024137564       10.000008917160937        0.093580740664817        0.302001140867465        0.000000000000000
Se         23.248250875365031        5.725982433419916        8.330329814301827       -0.448526832805656        0.107475502574442        0.273461368810691
Se         23.248250875365031        5.725982433419916       11.669690675569067       -0.448526832805656        0.107475502574442       -0.273461368810691
