# total energy = -9517.8141962626 eV 

 CRYSTAL
 PRIMVEC
        5.974940318459000        0.000000000000000        0.000000000000000
       -2.987470159229500        5.174447689293456        0.000000000000000
        0.000000000000000        0.000000000000000       20.000067101485772
 PRIMCOORD
12 1
Se          3.028847815922892        5.150939286610479        8.663401759379601        0.351492584832263       -0.103168902855960      -13.097905207398048
Se         -0.057676696388117        5.200151285049434        8.627124909236077       -0.256102300954390        1.332322856155248      -12.749267833901532
Se          4.519985588981208        2.536420122106934        8.289022753917534       -1.231003862850004        0.132951032515104       -4.236826118171590
Se          1.534812196810124        2.553502476477409        8.462704111576596        0.759351746553037       -0.268372124940385       -7.137174989844574
Se          2.964470223967624        5.193871622774734       11.685335971860004       -0.758091134110069       -0.761054846047678        3.587832082123991
Se         -0.101556658086879        5.205617160452761       11.578570360803491        2.714757563745187       -2.090775744641670        4.957867639181164
Se          4.467603884703310        2.535253813756771       11.508972463491986        1.476713503074796        0.439393756077303        5.067701872849180
Se          1.493435735104795        2.538696574368267       11.521178669068567       -0.950401766040423        2.889878049372376        6.118814566025640
Mo          1.466660235055685        0.860485809915128       10.057557288658849       -0.644788223618051        1.193294761494112        1.762869442303418
Mo          4.489673521757601        0.823325266098504        9.932945725859163       -0.980178753490948        2.603902858776714        6.326464920487581
Mo         -0.004146011086979        3.443912579989475        9.851232442063919       -0.666207322289550       -2.785773264547743        7.646401738742044
Mo          3.015426307485538        3.450332653361659       10.010517778519686        0.184458222258582       -2.582598688467853        1.753221116271433
