# total energy = -9512.458205325773 eV 

 CRYSTAL
 PRIMVEC
        8.630457589390799        0.000000000000000        0.000000000000000
       -4.315228794695400        7.474192033852167        0.000000000000000
        0.000000000000000        0.000000000000000       20.000041178044860
 PRIMCOORD
12 1
Se          4.290945276176131        7.459457253609799        8.305050501211614       -0.020469332739554       -0.032329065588176        1.823423319670450
Se         -0.031329424095248        7.447443656645368        8.331250844361486        0.041444658807225        0.006390479761366        1.736759878040023
Se          6.433275133133019        3.730973570312170        8.359494879868526       -0.049455448504464       -0.002685004230454        1.704112252627895
Se          2.106333944443058        3.727680187696058        8.322461586352452        0.019667919526270        0.011602108196807        1.856532972527003
Se          4.282756698015317        7.457773451334109       11.646224276224395        0.043960998594974        0.028860902985036       -1.818295252125069
Se         -0.047488229839864        7.470403262970424       11.635986827431859       -0.033053859893036        0.015890967295553       -1.720875081394813
Se          6.452722143219193        3.707192344424603       11.700616009090012        0.009755541081694       -0.002075652509093       -1.940439933227170
Se          2.109914721296896        3.731285992876905       11.704285679657021       -0.031926173542871       -0.056995983223488       -1.973248509769076
Mo          2.109259669565861        1.231424758501601       10.012736705234639       -0.004870442893565       -0.044212452596447        0.090374316480388
Mo          6.424514355634028        1.226930016189046        9.978129433346940        0.011897528081973        0.012050508788391        0.079481318852153
Mo         -0.041572914208095        4.955193622818148        9.993186129657392        0.010494219349825        0.011616249270509        0.108585705415302
Mo          4.289204512880350        4.956822190165265        9.965297669003036        0.002554135021099        0.051886941849997        0.053589270013345
