# total energy = -38121.74701899871 eV 

 CRYSTAL
 PRIMVEC
       13.277745107833699        0.000000000000000        0.000000000000000
       -6.638872553916849       11.498859207011680        0.000000000000000
        0.000000000000000        0.000000000000000       20.000015178772852
 PRIMCOORD
48 1
Mo          1.583948686021359        0.914486105458895       10.000007589386426        1.456971278633981        0.841182797633681        0.000000000000000
Se          1.635337542912208        2.860633089178807        8.298974419229678       -0.024861550231544       -0.014363217114823        0.699201532562604
Se          1.635337542912208        2.860633089178807       11.701038103994152       -0.024861550231544       -0.014363217114823       -0.699201532562604
Mo         -0.075769452457853        3.789200243324560       10.000007589386426        1.456990819026733        0.841187682731869        0.000000000000000
Se         -0.024380595567004        5.735348554818982        8.298974419229678       -0.024865921108870       -0.014361417341807        0.699193819249676
Se         -0.024380595567004        5.735348554818982       11.701038103994152       -0.024865921108870       -0.014361417341807       -0.699193819249676
Mo         -1.735487590937065        6.663915708964734       10.000007589386426        1.456980277499064        0.841187939842300        0.000000000000000
Se         -1.684098734046217        8.610062692684647        8.298974419229678       -0.024870291986196       -0.014353961139309        0.699193819249676
Se         -1.684098734046217        8.610062692684647       11.701038103994152       -0.024870291986196       -0.014353961139309       -0.699193819249676
Mo         -3.395205729416278        9.538629846830398       10.000007589386426        1.456985162597252        0.841197195817814        0.000000000000000
Se         -3.343816872525429       11.484778158324822        8.298974419229678       -0.024869777765334       -0.014349076041121        0.699201532562604
Se         -3.343816872525429       11.484778158324822       11.701038103994152       -0.024869777765334       -0.014349076041121       -0.699201532562604
Mo          5.005192073594099        0.973264027502253       10.000007589386426       -1.382195337778720       -0.798022183810267        0.000000000000000
Se          4.954026282821061        2.860201562462802        8.362054330687975       -0.012530791073413       -0.007234573306188       -0.893219634864924
Se          4.954026282821061        2.860201562462802       11.637958192535857       -0.012530791073413       -0.007234573306188        0.893219634864924
Mo          3.345473935114887        3.847979493142428       10.000007589386426       -1.382205107975096       -0.798005214521824        0.000000000000000
Se          3.294308144341850        5.734915700328466        8.362054330687975       -0.012526934416949       -0.007232002201879       -0.893210121778979
Se          3.294308144341850        5.734915700328466       11.637958192535857       -0.012526934416949       -0.007232002201879        0.893210121778979
Mo          1.685755796635674        6.722693631008092       10.000007589386426       -1.382175540275537       -0.798013956276477        0.000000000000000
Se          1.634590005862637        8.609629838194131        8.362054330687975       -0.012527448637811       -0.007232773533172       -0.893220920417079
Se          1.634590005862637        8.609629838194131       11.637958192535857       -0.012527448637811       -0.007232773533172        0.893220920417079
Mo          0.026037658156462        9.597409096648267       10.000007589386426       -1.382188138686653       -0.797992359000277        0.000000000000000
Se         -0.025128132616575       11.484347959383328        8.362054330687975       -0.012526677306518       -0.007232516422741       -0.893210121778979
Se         -0.025128132616575       11.484347959383328       11.637958192535857       -0.012526677306518       -0.007232516422741        0.893210121778979
Mo          8.222821239938209        0.914486105458895       10.000007589386426        1.456981305940788        0.841172770326873        0.000000000000000
Se          8.274211424603568        2.860633089178807        8.298974419229678       -0.024872863090506       -0.014360646010514        0.699194847691400
Se          8.274211424603568        2.860633089178807       11.701038103994152       -0.024872863090506       -0.014360646010514       -0.699194847691400
Mo          6.563103101458997        3.789200243324560       10.000007589386426        1.456985676818114        0.841191025167471        0.000000000000000
Se          6.614493286124356        5.735348554818982        8.298974419229678       -0.024873120200937       -0.014360131789652        0.699194847691400
Se          6.614493286124356        5.735348554818982       11.701038103994152       -0.024873120200937       -0.014360131789652       -0.699194847691400
Mo          4.903384962979784        6.663915708964734       10.000007589386426        1.456967679087948        0.841196424486521        0.000000000000000
Se          4.954775147645144        8.610062692684647        8.298974419229678       -0.024859750458527       -0.014356275133188        0.699203589446052
Se          4.954775147645144        8.610062692684647       11.701038103994152       -0.024859750458527       -0.014356275133188       -0.699203589446052
Mo          3.243666824500572        9.538629846830398       10.000007589386426        1.456991333247595        0.841194367603073        0.000000000000000
Se          3.295055681391420       11.484778158324822        8.298974419229678       -0.024862835783698       -0.014350875814137        0.699203589446052
Se          3.295055681391420       11.484778158324822       11.701038103994152       -0.024862835783698       -0.014350875814137       -0.699203589446052
Mo         11.644068610834481        0.973264027502253       10.000007589386426       -1.382204850864665       -0.798037096215263        0.000000000000000
Se         11.592898836737911        2.860201562462802        8.362054330687975       -0.012518449772727       -0.007233030643602       -0.893221948858803
Se         11.592898836737911        2.860201562462802       11.637958192535857       -0.012518449772727       -0.007233030643602        0.893221948858803
Mo          9.984346489031736        3.847979493142428       10.000007589386426       -1.382195337778720       -0.798019612705958        0.000000000000000
Se          9.933180698258699        5.734915700328466        8.362054330687975       -0.012521277987468       -0.007229173987138       -0.893222720190096
Se          9.933180698258699        5.734915700328466       11.637958192535857       -0.012521277987468       -0.007229173987138        0.893222720190096
Mo          8.324628350552523        6.722693631008092       10.000007589386426       -1.382203051091649       -0.798006500073979        0.000000000000000
Se          8.273461232004975        8.609629838194131        8.362054330687975       -0.012523334870915       -0.007224803109812       -0.893221948858803
Se          8.273461232004975        8.609629838194131       11.637958192535857       -0.012523334870915       -0.007224803109812        0.893221948858803
Mo          6.664910212073311        9.597409096648267       10.000007589386426       -1.382222848594832       -0.798005985853117        0.000000000000000
Se          6.613744421300274       11.484347959383328        8.362054330687975       -0.012520763766606       -0.007228916876707       -0.893211407331134
Se          6.613744421300274       11.484347959383328       11.637958192535857       -0.012520763766606       -0.007228916876707        0.893211407331134
