# total energy = -38122.062811876756 eV 

 CRYSTAL
 PRIMVEC
       13.277745107833699        0.000000000000000        0.000000000000000
       -6.638872553916849       11.498859207011680        0.000000000000000
        0.000000000000000        0.000000000000000       20.000015178772852
 PRIMCOORD
48 1
Mo          1.698054971929061        0.980364965585923       10.000007589386426       -0.851372855343687       -0.491540379462564        0.000000000000000
Se          1.716006483314852        2.907206107919044        8.330514374958828       -0.320594853013208       -0.185124652495615        0.116192060404650
Se          1.716006483314852        2.907206107919044       11.669498148265003       -0.320594853013208       -0.185124652495615       -0.116192060404650
Mo          0.038336833449848        3.855079103451587       10.000007589386426       -0.851355371834382       -0.491523153063690        0.000000000000000
Se          0.056288344835639        5.781921573559219        8.330514374958828       -0.320619792725011       -0.185110511421913        0.116183832870859
Se          0.056288344835639        5.781921573559219       11.669498148265003       -0.320619792725011       -0.185110511421913       -0.116183832870859
Mo         -1.621381305029364        6.729794569091762       10.000007589386426       -0.851356143165675       -0.491530866376618        0.000000000000000
Se         -1.603429793643573        8.656635711424885        8.330514374958828       -0.320620306945873       -0.185109482980189        0.116183832870859
Se         -1.603429793643573        8.656635711424885       11.669498148265003       -0.320620306945873       -0.185109482980189       -0.116183832870859
Mo         -3.281099443508576        9.604510034731938       10.000007589386426       -0.851349201184039       -0.491533694591359        0.000000000000000
Se         -3.263147932122785       11.531348521516037        8.330514374958828       -0.320620306945873       -0.185080943722353        0.116192060404650
Se         -3.263147932122785       11.531348521516037       11.669498148265003       -0.320620306945873       -0.185080943722353       -0.116192060404650
Mo          5.030742438505103        0.988015602317057       10.000007589386426       -0.276990723696399       -0.159932715360296        0.000000000000000
Se          4.995038581910138        2.883879765313602        8.303159564487666        0.051153662900916        0.029533503872412        0.228651134462276
Se          4.995038581910138        2.883879765313602       11.696858269834205        0.051153662900916        0.029533503872412       -0.228651134462276
Mo          3.371024300025891        3.862731067957232       10.000007589386426       -0.277001265224068       -0.159914717630129        0.000000000000000
Se          3.335320443430926        5.758593903179266        8.303159564487666        0.051154177121778        0.029541474295771        0.228659619106498
Se          3.335320443430926        5.758593903179266       11.696858269834205        0.051154177121778        0.029541474295771       -0.228659619106498
Mo          1.711306161546679        6.737445205822897       10.000007589386426       -0.276952928463049       -0.159916260292715        0.000000000000000
Se          1.675602304951714        8.633309368819441        8.303159564487666        0.051164461539016        0.029539931633186        0.228653448456155
Se          1.675602304951714        8.633309368819441       11.696858269834205        0.051164461539016        0.029539931633186       -0.228653448456155
Mo          0.051588023067466        9.612159343688560       10.000007589386426       -0.276968097978475       -0.159890035028757        0.000000000000000
Se          0.015884166472501       11.508028817783149        8.303159564487666        0.051160861992983        0.029530161436809        0.228659619106498
Se          0.015884166472501       11.508028817783149       11.696858269834205        0.051160861992983        0.029530161436809       -0.228659619106498
Mo          8.300399121279749        0.959275923031151       10.000007589386426       -0.443449158904743       -0.256040851561392        0.000000000000000
Se          8.240568274049339        2.841209075860557        8.298358331856674        0.266385946861264        0.153798317588160        0.205206262705290
Se          8.240568274049339        2.841209075860557       11.701658174690689        0.266385946861264        0.153798317588160       -0.205206262705290
Mo          6.640680982800537        3.833990060896815       10.000007589386426       -0.443451730009052       -0.256026967598121        0.000000000000000
Se          6.580850135570127        5.715924541500732        8.298358331856674        0.266386203971695        0.153797803367298        0.205206262705290
Se          6.580850135570127        5.715924541500732       11.701658174690689        0.266386203971695        0.153797803367298       -0.205206262705290
Mo          4.980962844321324        6.708704198762478       10.000007589386426       -0.443462528647152       -0.256017711622606        0.000000000000000
Se          4.921131997090915        8.590638679366396        8.298358331856674        0.266372577118854        0.153801145802901        0.205218346895545
Se          4.921131997090915        8.590638679366396       11.701658174690689        0.266372577118854        0.153801145802901       -0.205218346895545
Mo          3.321244705842112        9.583419664402655       10.000007589386426       -0.443432189616300       -0.256015654739159        0.000000000000000
Se          3.261413858611702       11.465358128330104        8.298358331856674        0.266381833094369        0.153784947845751        0.205218346895545
Se          3.261413858611702       11.465358128330104       11.701658174690689        0.266381833094369        0.153784947845751       -0.205218346895545
Mo         11.548067858155822        0.917838736098623       10.000007589386426       -0.017985645976536       -0.010399088490372        0.000000000000000
Se         11.513528459806812        2.814373425223114        8.320066117333472        0.797946850453998        0.460702554373922        0.384066419550707
Se         11.513528459806812        2.814373425223114       11.679947733664870        0.797946850453998        0.460702554373922       -0.384066419550707
Mo          9.888347064127586        3.792554201738798       10.000007589386426       -0.017966362694215       -0.010385204527100        0.000000000000000
Se          9.853806338004070        5.689088890863290        8.320066117333472        0.797956877760805        0.460700497490474        0.384065905329846
Se          9.853806338004070        5.689088890863290       11.679947733664870        0.797956877760805        0.460700497490474       -0.384065905329846
Mo          8.228628925648374        6.667268339604463       10.000007589386426       -0.017977161332315       -0.010366692576072        0.000000000000000
Se          8.194088199524856        8.563804356503464        8.320066117333472        0.797953535325203        0.460690984404529        0.384066419550707
Se          8.194088199524856        8.563804356503464       11.679947733664870        0.797953535325203        0.460690984404529       -0.384066419550707
Mo          6.568910787169163        9.541982477470127       10.000007589386426       -0.017998758608515       -0.010376462772448        0.000000000000000
Se          6.534370061045644       11.438518494369129        8.320066117333472        0.797972818607524        0.460710010576419        0.384070276207172
Se          6.534370061045644       11.438518494369129       11.679947733664870        0.797972818607524        0.460710010576419       -0.384070276207172
