# total energy = -9529.143663218987 eV 

 CRYSTAL
 PRIMVEC
        6.705204922078999        0.000000000000000        0.000000000000000
       -3.352602461039500        5.806875092643465        0.000000000000000
        0.000000000000000        0.000000000000000       20.000050559404965
 PRIMCOORD
12 1
Se          3.334826292270576        5.787148379762709        8.491437316775743        0.075383235693174        0.205451288945990       -3.091001655544545
Se         -0.025654114031874        5.801547136812381        8.488356945634539       -0.057099855837593       -0.146886932093682       -2.700544242011610
Se          5.003186548601107        2.883214648276742        8.466205630653958        0.069020266747921        0.147677289558435       -2.595911866582659
Se          1.637923990148231        2.893127623233544        8.466622694400112       -0.018314490217727       -0.131225050192109       -2.657067639468554
Se          3.338569137658080        5.796524938325744       11.511285266790672       -0.226498348823897       -0.083972009639198        2.795179392553770
Se         -0.021262204807913        5.787576842357230       11.536297692711504        0.137321138510032        0.121132180225003        2.410331357292962
Se          4.989180046039377        2.899717498630963       11.510887648138793       -0.004802051518931       -0.150360494015872        2.612853901319953
Se          1.657381153791119        2.899079163122381       11.467137527063212        0.010788610793268       -0.028932122574410        3.564771847571712
Mo          1.651021266922527        0.955004903518915       10.011033885143553        0.223796889525862       -0.070727480009456       -0.445420938799730
Mo          5.013124332816121        0.955368996146183        9.981465272478168       -0.236507143680081        0.014349590261983        0.596465603672371
Mo         -0.025102946187279        3.854195373043002       10.007716820268598       -0.330814735533205        0.256953336480849       -0.503098521775677
Mo          3.317931187428413        3.863653735106087        9.978085178676949        0.357726484341177       -0.133459082726670        0.013442504661576
