# total energy = -38122.81990529945 eV 

 CRYSTAL
 PRIMVEC
       13.277745107833699        0.000000000000000        0.000000000000000
       -6.638872553916849       11.498859207011680        0.000000000000000
        0.000000000000000        0.000000000000000       20.000015178772852
 PRIMCOORD
48 1
Mo          1.638704779071555        0.937202999563888       10.000007589386426        0.053906030064280       -0.104333613108182        0.000000000000000
Se          1.631400691487735        2.866588157859670        8.330514374958828        0.092997099986551       -0.154883066496356        0.000990132269604
Se          1.631400691487735        2.866588157859670       11.669498148265003        0.092997099986551       -0.154883066496356       -0.000990132269604
Mo         -0.021013359407658        3.811917137429552       10.000007589386426        0.053917342923242       -0.104249795107691        0.000000000000000
Se         -0.028317446991477        5.741303623499846        8.330514374958828        0.092999413980430       -0.154876638735582        0.000987561165295
Se         -0.028317446991477        5.741303623499846       11.669498148265003        0.092999413980430       -0.154876638735582       -0.000987561165295
Mo         -1.680731497886870        6.686631275295216       10.000007589386426        0.053893688763595       -0.104233340040110        0.000000000000000
Se         -1.688035585470689        8.616017761365509        8.330514374958828        0.092995043103104       -0.154883837827649        0.000989103827881
Se         -1.688035585470689        8.616017761365509       11.669498148265003        0.092995043103104       -0.154883837827649       -0.000989103827881
Mo         -3.340449636366082        9.561346740935392       10.000007589386426        0.053897802530490       -0.104270621052598        0.000000000000000
Se         -3.347753723949901       11.490727915907641        8.330514374958828        0.092994014661380       -0.154802590931467        0.001009929772788
Se         -3.347753723949901       11.490727915907641       11.669498148265003        0.092994014661380       -0.154802590931467       -0.001009929772788
Mo          4.986016354109365        0.888922462802783       10.000007589386426       -0.178801535667160        0.317455020430396        0.000000000000000
Se          4.980832722419268        2.814634996801738        8.330514374958828        0.076146596562677       -0.130777163821387       -0.001254956013487
Se          4.980832722419268        2.814634996801738       11.669498148265003        0.076146596562677       -0.130777163821387        0.001254956013487
Mo          3.326298215630153        3.763636600668447       10.000007589386426       -0.178792279691645        0.317526497130201        0.000000000000000
Se          3.321114583940055        5.689350462441914        8.330514374958828        0.076147625004401       -0.130772278723199       -0.001254698903056
Se          3.321114583940055        5.689350462441914       11.669498148265003        0.076147625004401       -0.130772278723199        0.001254698903056
Mo          1.666580077150941        6.638352066308622       10.000007589386426       -0.178795622127248        0.317532924890975        0.000000000000000
Se          1.661396445460843        8.564064600307578        8.330514374958828        0.076150710329573       -0.130768422066734       -0.001254698903056
Se          1.661396445460843        8.564064600307578       11.669498148265003        0.076150710329573       -0.130768422066734        0.001254698903056
Mo          0.006861938671728        9.513066204174287       10.000007589386426       -0.178783023716131        0.317520840700720        0.000000000000000
Se          0.001678306981630       11.438778738173243        8.330514374958828        0.076152252992158       -0.130723941962179       -0.001237729614613
Se          0.001678306981630       11.438778738173243       11.669498148265003        0.076152252992158       -0.130723941962179        0.001237729614613
Mo          8.321209331187257        0.861631385508141       10.000007589386426       -0.104170862205388        0.187489811349963        0.000000000000000
Se          8.320167028196291        2.780168626050824        8.330514374958828        0.007223260447226       -0.015012935173844       -0.001544719469173
Se          8.320167028196291        2.780168626050824       11.669498148265003        0.007223260447226       -0.015012935173844        0.001544719469173
Mo          6.661491192708044        3.736346851148317       10.000007589386426       -0.104157749573409        0.187520921712108        0.000000000000000
Se          6.660450217491591        5.654884091690999        8.330514374958828        0.007214261582143       -0.015011392511259       -0.001547804794344
Se          6.660450217491591        5.654884091690999       11.669498148265003        0.007214261582143       -0.015011392511259        0.001547804794344
Mo          5.001773054228832        6.611060989013981       10.000007589386426       -0.104147208045740        0.187543033209170        0.000000000000000
Se          5.000732079012377        8.529599557331174        8.330514374958828        0.007208862263093       -0.015013449394706       -0.001544976579604
Se          5.000732079012377        8.529599557331174       11.669498148265003        0.007208862263093       -0.015013449394706        0.001544976579604
Mo          3.342054915749620        9.485775126879645       10.000007589386426       -0.104147722266602        0.187582113994675        0.000000000000000
Se          3.341013940533165       11.404317678520369        8.330514374958828        0.007229431097569       -0.015020391376342       -0.001515923100906
Se          3.341013940533165       11.404317678520369       11.669498148265003        0.007229431097569       -0.015020391376342        0.001515923100906
Mo         11.638268891771379        0.865755453138635       10.000007589386426        0.053209775017257       -0.097595005823304        0.000000000000000
Se         11.641808738617128        2.776355257655854        8.330514374958828       -0.088484554812875        0.149025576658358        0.002856496887901
Se         11.641808738617128        2.776355257655854       11.669498148265003       -0.088484554812875        0.149025576658358       -0.002856496887901
Mo          9.978545442194124        3.740470918778810       10.000007589386426        0.053277652171028       -0.097576236761845        0.000000000000000
Se          9.982087944588894        5.651069395521518        8.330514374958828       -0.088471185070465        0.149025319547927        0.002853668673160
Se          9.982087944588894        5.651069395521518       11.669498148265003       -0.088471185070465        0.149025319547927       -0.002853668673160
Mo          8.318827303714912        6.615185056644474       10.000007589386426        0.053271481520686       -0.097540498411942        0.000000000000000
Se          8.322369806109682        8.525784861161695        8.330514374958828       -0.088471185070465        0.149019663118446        0.002855725556608
Se          8.322369806109682        8.525784861161695       11.669498148265003       -0.088471185070465        0.149019663118446       -0.002855725556608
Mo          6.659109165235699        9.489899194510137       10.000007589386426        0.053268139085083       -0.097551811270904        0.000000000000000
Se          6.662651667630469       11.400497671252847        8.330514374958828       -0.088454215782022        0.149065942996018        0.002863695979967
Se          6.662651667630469       11.400497671252847       11.669498148265003       -0.088454215782022        0.149065942996018       -0.002863695979967
