# total energy = -9526.524725119796 eV 

 CRYSTAL
 PRIMVEC
        5.974940318459000        0.000000000000000        0.000000000000000
       -2.987470159229500        5.174447689293456        0.000000000000000
        0.000000000000000        0.000000000000000       20.000067101485772
 PRIMCOORD
12 1
Se          2.960369024933034        5.154483621207389        8.137498864935445        0.095562547866612        0.182310835939253        0.908107100148463
Se         -0.011005242572570        5.153059792929500        8.174144368896618       -0.121737418179469        0.150563097035464        0.732619717936302
Se          4.462217476006219        2.581818316140618        8.147206350470846        0.157434373302714       -0.149576564311893        0.828452745976278
Se          1.459142565147000        2.575313996109943        8.135374176158200        0.047114200920195       -0.164626009166933        0.995278334880024
Se          2.957630112291052        5.171009708634214       11.840978984697639        0.070033796066742       -0.292887861642295       -0.545459265048392
Se         -0.033929893586433        5.170729483933278       11.860693300278394        0.131964499791533       -0.082239342444998       -0.586282745054432
Se          4.448402816495910        2.572543416284274       11.829012971721859        0.042744352035698        0.155797608299260       -0.387166657127153
Se          1.478105233235693        2.574404012699442       11.861336203856659        0.058846664105496        0.082507508624483       -0.771840885736636
Mo          1.469985886836939        0.843682485257525       10.022755053785922       -0.023781172200674        0.230943016843802       -0.556069441202577
Mo          4.464673176477105        0.852095798719948       10.022656467270668       -0.101872809173520       -0.070794071611074       -0.568869169786768
Mo         -0.014237087790824        3.442508469014637       10.033440637051454       -0.021584420678602       -0.178732630071664       -0.561229647551827
Mo          2.972636772394893        3.430778466181438        9.964285482817546       -0.334724099635863        0.136734926727456        0.512460169677149
