# total energy = -9506.945416473984 eV 

 CRYSTAL
 PRIMVEC
        5.974940318459000        0.000000000000000        0.000000000000000
       -2.987470159229500        5.174447689293456        0.000000000000000
        0.000000000000000        0.000000000000000       20.000067101485772
 PRIMCOORD
12 1
Se          2.996533546198571        5.111744275615419        8.544404250503140       -1.451486341810436        2.394709841729049       -9.623296588642912
Se         -0.050228933281157        5.201726279317380        8.734019579003467        3.282030334866161        1.493285555901947      -20.575706266821037
Se          4.429154546259994        2.599037496644385        8.685813163020109       -0.222168094945767       -4.916899920223360      -18.283607655423211
Se          1.438085680476686        2.615975854953184        8.517014526589293        1.917181980753487       -1.404069521913007      -10.819380484092013
Se          2.971508106168737        5.185751081387917       11.536979398740732        0.666067454215110       -0.908027653025298        6.436135117700647
Se         -0.015577864398286        5.170108687634190       11.287153401663229       -1.016440066010137       -3.473169314562656       16.326712911725405
Se          4.468940478852549        2.572618700532287       11.514058332691057        0.856531776140782        1.232647055614232        7.826483941465787
Se          1.511858866082732        2.551839053092749       11.313155146941098       -1.852939597143987        2.128521612789189       10.577060844899352
Mo          1.517130555925708        0.833713894830208        9.975318210115580       -8.986214478861418        2.802891162819809        1.484396991193430
Mo          4.431501502817085        0.853031474373818       10.052307108601021        7.557482410190425        0.998775808072293       -1.096616097246728
Mo         -0.072514863174978        3.454074758483110        9.848685325006159        3.688582090045534       -3.374583405138454       11.160745231938561
Mo          3.025129013068684        3.428634060101143        9.947506655415248       -4.438627724550186        3.025919035046687        6.587072053302719
