# total energy = -9528.762942453142 eV 

 CRYSTAL
 PRIMVEC
        6.638793177329500        0.000000000000000        0.000000000000000
       -3.319396588664750        5.749360861396781        0.000000000000000
        0.000000000000000        0.000000000000000       19.999981854470612
 PRIMCOORD
12 1
Se          3.310316711236116        5.708246151370261        8.409308862895129        0.137255832460570        0.312694877911711        0.468212492951662
Se         -0.031823055095529        5.740159494053002        8.258493406647782        0.133918024845923       -0.092373607191487        1.610703261730955
Se          5.034613782580497        2.827453383793504        8.377763309354414       -0.184519414541149       -0.118964739292060        0.401568955027481
Se          1.687061408171374        2.872443157397630        8.100794849634180        0.095760265788016       -0.168076688260769        2.498862191983409
Se          3.309348111311544        5.768977167477154       11.552339272010945       -0.100638936215371       -0.903662946349420        3.332046798330967
Se          0.021976397054914        5.741533060361391       11.602233122135164       -0.468523082352254       -1.161193495747761        3.106343434959580
Se          4.891608866506277        2.905648409232679       11.680716935077555        1.434665663196553       -0.471002141127514        1.631855479775123
Se          1.610257873782167        2.817076286178020       11.557471723016338        0.989965404934787        1.168132392058352        3.365134082580027
Mo          1.687602469815326        0.952908473018438       10.159319307973941       -0.094415321123694       -0.501002043321677       -6.210145076198747
Mo          4.918407682925203        0.926782830227693       10.119292032269870        0.838065847879223        1.076397190066924       -4.106717698581115
Mo          0.049271131324186        3.784888849879562       10.043468383753638       -1.150080668701060        0.601935628090921       -2.944912537118114
Mo          3.375187014889074        3.777460040314131       10.063408662941063       -1.631453616171541        0.257116087383643       -3.152951128330796
