# total energy = -9514.678572799598 eV 

 CRYSTAL
 PRIMVEC
        5.443805113637699        0.000000000000000        0.000000000000000
       -2.721902556818850        4.714471323538089        0.000000000000000
        0.000000000000000        0.000000000000000       19.999957500357748
 PRIMCOORD
12 1
Se          2.711215278619756        4.697238414070357        8.123760974533925       -0.188920116677361        0.192500122317967       -1.303765086368308
Se         -0.017157240576652        4.710801110130474        8.126357125192619        0.185289974502719       -0.204816483291964       -1.248314593945286
Se          4.058226060894178        2.348315987090349        8.072436779922549        0.112518209456746       -0.053722453216579       -0.809063277046732
Se          1.339073714418738        2.352593729148645        8.096445049234715       -0.032706760811248       -0.064064463191279       -1.021380700051352
Se          2.712331258668052        4.699212337804562       11.940585852707930       -0.018631764489524       -0.044037874613829        0.797740647888373
Se         -0.031182660071428        4.706019271718655       11.915168726632356        0.008763094818211       -0.045458152634420        0.832384992907291
Se          4.056208042338552        2.340423558436597       11.872986858328822       -0.084745912036370        0.150594721618472        1.204210127729840
Se          1.335673513744760        2.339241163965915       11.917604829420709        0.229853639947849       -0.026974997973987        0.982722604094808
Mo          1.353670189069935        0.769630468692291        9.964990325952503       -0.361145795962437        0.236729287092425        0.169511107355062
Mo          4.059241874928382        0.767926557691723       10.034300308278826        0.270483258688949        0.042092577093230        0.057473437293769
Mo         -0.012582811139662        3.128208572802359       10.027959364082459       -0.180496150517579       -0.039347666132363        0.104811067178464
Mo          2.698318904305549        3.135116761491565        9.978375553965915        0.059738580190476       -0.143494617067672        0.233669672964071
