# total energy = -38122.68623652698 eV 

 CRYSTAL
 PRIMVEC
       53.110927513609894        0.000000000000000        0.000000000000000
       -1.659716484800309        2.874735173529163        0.000000000000000
        0.000000000000000        0.000000000000000       19.999981973800079
 PRIMCOORD
48 1
Mo          1.601793707253966        0.868671708227101        9.999996297992791        1.096787332793743        1.138061784495677        0.000000000000000
Se          1.585605496547818        2.780675720902559        8.326141684288357        0.342571367099015        0.125113278137897        0.001325918492431
Se          1.585605496547818        2.780675720902559       11.673856222789974        0.342571367099015        0.125113278137897       -0.001325918492431
Mo          4.912776728287169        0.861634510331547        9.999996297992791       -0.112791003623988        0.030809800051668        0.000000000000000
Se          4.904709178397852        2.775518649840988        8.329620450040501        0.053080962691349        0.015954730682430        0.000591353991195
Se          4.904709178397852        2.775518649840988       11.670377457037834        0.053080962691349        0.015954730682430       -0.000591353991195
Mo          8.226367495861291        0.859759694590317        9.999996297992791       -0.020818231594358       -0.022598464218285        0.000000000000000
Se          8.226930471692935        2.775699226994534        8.333152326720155       -0.001071122055355        0.014979253707389       -0.043299453456128
Se          8.226930471692935        2.775699226994534       11.666850891450927       -0.001071122055355        0.014979253707389        0.043299453456128
Mo         11.542937786468926        0.863174727229442        9.999996297992791        0.093084260422645       -0.014726257043331        0.000000000000000
Se         11.552110043650526        2.781201519084944        8.336519559524518       -0.061537067655000        0.009753227087815       -0.081290090733915
Se         11.552110043650526        2.781201519084944       11.663478347553815       -0.061537067655000        0.009753227087815        0.081290090733915
Mo         14.862657555078115        0.871656542353366        9.999996297992791        0.206866424757961       -0.007939312997434        0.000000000000000
Se         14.879860184499776        2.791680305083379        8.339504393650783       -0.117722124579258        0.004627730646744       -0.114621887002813
Se         14.879860184499776        2.791680305083379       11.660488202334797       -0.117722124579258        0.004627730646744        0.114621887002813
Mo         18.185516179503363        0.884679341779703        9.999996297992791        0.310752151495421        0.002832585617822        0.000000000000000
Se         18.209676340429304        2.806482320581423        8.341931563038154       -0.166337079084933       -0.000644575850402       -0.140979305721648
Se         18.209676340429304        2.806482320581423       11.658066344040177       -0.166337079084933       -0.000644575850402        0.140979305721648
Mo         21.511295904941857        0.901419906131993        9.999996297992791        0.388616759957734        0.012540561269789        0.000000000000000
Se         21.540915869216199        2.824667502162082        8.343636423811342       -0.204296606000574       -0.005536101799305       -0.158683929997151
Se         21.540915869216199        2.824667502162082       11.656366794359743       -0.204296606000574       -0.005536101799305        0.158683929997151
Mo         24.839598399437250        0.920826639045466        9.999996297992791        0.446614445420219        0.017804897343576        0.000000000000000
Se         24.872819284597014        2.845099275976569        8.344512754115316       -0.229068938912577       -0.010075386457801       -0.166417811760253
Se         24.872819284597014        2.845099275976569       11.655479841870264       -0.229068938912577       -0.010075386457801        0.166417811760253
Mo         28.169865998250643        0.941683300280060        9.999996297992791        0.477970862248096        0.021572850709209        0.000000000000000
Se         28.204595233751792        2.866497668671802        8.344512754115316       -0.238768429920323       -0.013823285209820       -0.163267694760202
Se         28.204595233751792        2.866497668671802       11.655479841870264       -0.238768429920323       -0.013823285209820        0.163267694760202
Mo         31.501424192602617        0.962678049926190        9.999996297992791        0.472268667110395        0.028092657017345        0.000000000000000
Se         31.535494852602604        2.887508351596186        8.343636423811342       -0.233613622890123       -0.016668212128327       -0.149421783832459
Se         31.535494852602604        2.887508351596186       11.656366794359743       -0.233613622890123       -0.016668212128327        0.149421783832459
Mo         34.833508185136985        0.982493736981518        9.999996297992791        0.440373861040100        0.033508688245394        0.000000000000000
Se         34.864785210349744        2.906819484840134        8.341931563038154       -0.213354863593520       -0.018249698389126       -0.126177201101186
Se         34.864785210349744        2.906819484840134       11.658066344040177       -0.213354863593520       -0.018249698389126        0.126177201101186
Mo         38.165305378662765        0.999876943556723        9.999996297992791        0.381519226511245        0.033107595973105        0.000000000000000
Se         38.191834286955810        2.923214828163586        8.339504393650783       -0.179518359548660       -0.018700412974589       -0.094725910524287
Se         38.191834286955810        2.923214828163586       11.660488202334797       -0.179518359548660       -0.018700412974589        0.094725910524287
Mo         41.496066909102041        1.013744206730526        9.999996297992791        0.295180515355113        0.033769912443243        0.000000000000000
Se         41.516185328444195        2.935664029572776        8.336519559524518       -0.134445872560672       -0.017704110054642       -0.057471123299891
Se         41.516185328444195        2.935664029572776       11.663478347553815       -0.134445872560672       -0.017704110054642        0.057471123299891
Mo         44.825065156747854        1.023224507291705        9.999996297992791        0.188849411308848        0.026563364174029        0.000000000000000
Se         44.837514358157051        2.943386358433255        8.333152326720155       -0.084090023327006       -0.016402359942721       -0.016881356675588
Se         44.837514358157051        2.943386358433255       11.666850891450927       -0.084090023327006       -0.016402359942721        0.016881356675588
Mo         48.151705279212074        1.027712380666606        9.999996297992791        0.077259113397416       -0.004898210820108        0.000000000000000
Se         48.155704532053846        2.945893194211897        8.329620450040501       -0.031003147095746       -0.023181590675689        0.027557867320960
Se         48.155704532053846        2.945893194211897       11.670377457037834       -0.031003147095746       -0.023181590675689       -0.027557867320960
Mo         51.475525211425314        1.026936961124907        9.999996297992791       -0.318496060565330       -0.207267517030250        0.000000000000000
Se         51.470840827618616        2.943030515218914        8.326141684288357       -0.712843554918601       -0.590060211506010       -0.531759392845430
Se         51.470840827618616        2.943030515218914       11.673856222789974       -0.712843554918601       -0.590060211506010        0.531759392845430
