# total energy = -9527.880618375848 eV 

 CRYSTAL
 PRIMVEC
        6.506022605555400        0.000000000000000        0.000000000000000
       -3.253011302777700        5.634378226976116        0.000000000000000
        0.000000000000000        0.000000000000000       19.999994935150113
 PRIMCOORD
12 1
Se          3.235349403210399        5.611515412937933        8.076097619272705       -0.112536207186913        0.067582762328456        2.659115009830242
Se         -0.029545149856348        5.627183216576632        8.056876876689113        0.097202655305668       -0.028394504663285        2.728089510921453
Se          4.862662452004598        2.803886899668739        8.106108600347611       -0.076683957363372        0.000708853458141        2.555361952075154
Se          1.589187105723384        2.805307164403532        8.077197137093044        0.101365787403678        0.006832452592176        2.598424349713943
Se          3.240015522623103        5.617018857459973       11.943085528347972       -0.041230742928671        0.056714704412024       -2.830141526065348
Se         -0.019174549823093        5.619009700377272       11.891937781032137       -0.068628944672009        0.040407732439187       -2.487415892707760
Se          4.857499923067090        2.804160152618172       11.912593752202515       -0.039511702587312        0.049877623832091       -2.606629772007414
Se          1.595867489734769        2.813671957667494       11.923771749641119        0.068019850061078       -0.108925605405023       -2.735048976066520
Mo          1.609630980556821        0.919572945909890        9.960144826104726       -0.122644246669445        0.097299328827707        0.382868542052892
Mo          4.847983563801944        0.930963039685436       10.028320786386081        0.202930578280915       -0.138438797553390       -0.327785974656565
Mo         -0.015832406010619        3.746740346268088       10.002549780243216       -0.088428504738927        0.007488341301540       -0.071954153875539
Mo          3.218794178088302        3.748990128885089        9.991818095955352        0.080144920874446       -0.051152891569623        0.135116930785462
