# total energy = -38121.34981697051 eV 

 CRYSTAL
 PRIMVEC
       13.277745107833699        0.000000000000000        0.000000000000000
       -6.638872553916849       11.498859207011680        0.000000000000000
        0.000000000000000        0.000000000000000       20.000015178772852
 PRIMCOORD
48 1
Mo          1.681529490367851        0.863029532067996       10.000007589386426       -1.404992805470564        2.098229376035031        0.000000000000000
Se          1.612089539002902        2.900037453335325        8.330514374958828        0.524784758184937       -0.781256526828608       -0.183066226385396
Se          1.612089539002902        2.900037453335325       11.669498148265003        0.524784758184937       -0.781256526828608        0.183066226385396
Mo          0.021811351888638        3.737743669933661       10.000007589386426       -1.405025201384864        2.098315765139832        0.000000000000000
Se         -0.047628599476310        5.774751591200990        8.330514374958828        0.524784501074506       -0.781253698613868       -0.183065455054104
Se         -0.047628599476310        5.774751591200990       11.669498148265003        0.524784501074506       -0.781253698613868        0.183065455054104
Mo         -1.637906786590574        6.612459135573835       10.000007589386426       -1.405002832777371        2.098323735563191        0.000000000000000
Se         -1.707346737955523        8.649467056841164        8.330514374958828        0.524790157503987       -0.781250356178265       -0.183065197943673
Se         -1.707346737955523        8.649467056841164       11.669498148265003        0.524790157503987       -0.781250356178265        0.183065197943673
Mo         -3.297624925069786        9.487173273439501       10.000007589386426       -1.405005403881680        2.098302138286992        0.000000000000000
Se         -3.367064876434735       11.524178539157807        8.330514374958828        0.524780901528472       -0.781185821460096       -0.183035887354544
Se         -3.367064876434735       11.524178539157807       11.669498148265003        0.524780901528472       -0.781185821460096        0.183035887354544
Mo          4.912351424251104        1.016512298867489       10.000007589386426        0.961492481590061       -1.743751481988960        0.000000000000000
Se          4.970944785637463        2.831760632441822        8.330514374958828       -0.408543075467113        0.823258086829280       -0.127746603171730
Se          4.970944785637463        2.831760632441822       11.669498148265003       -0.408543075467113        0.823258086829280        0.127746603171730
Mo          3.252633285771892        3.891227764507664       10.000007589386426        0.961510479320228       -1.743723456951986        0.000000000000000
Se          3.311226647158251        5.706474770307486        8.330514374958828       -0.408539218810648        0.823272999234275       -0.127749945607332
Se          3.311226647158251        5.706474770307486       11.669498148265003       -0.408539218810648        0.823272999234275        0.127749945607332
Mo          1.592915147292679        6.765941902373329       10.000007589386426        0.961516135749709       -1.743696974577597        0.000000000000000
Se          1.651508508679039        8.581190235947663        8.330514374958828       -0.408539990141941        0.823271456571690       -0.127745831840437
Se          1.651508508679039        8.581190235947663       11.669498148265003       -0.408539990141941        0.823271456571690        0.127745831840437
Mo         -0.066802991186533        9.640657368013503       10.000007589386426        0.961512279093245       -1.743654808466921        0.000000000000000
Se         -0.008209629800174       11.455908357136858        8.330514374958828       -0.408541275694096        0.823260657933590       -0.127726291447685
Se         -0.008209629800174       11.455908357136858       11.669498148265003       -0.408541275694096        0.823260657933590        0.127726291447685
Mo          8.276349141565928        0.939331422104673       10.000007589386426        0.060635638484075       -0.120548539546737        0.000000000000000
Se          8.277261322654837        2.854484165419369        8.330514374958828        0.034216770372242       -0.116905027629686       -0.003460706400643
Se          8.277261322654837        2.854484165419369       11.669498148265003        0.034216770372242       -0.116905027629686        0.003460706400643
Mo          6.616631003086717        3.814045559970337       10.000007589386426        0.060624582735544       -0.120503545221320        0.000000000000000
Se          6.617543184175625        5.729199631059545        8.330514374958828        0.034219341476551       -0.116901685194083       -0.003458906627626
Se          6.617543184175625        5.729199631059545       11.669498148265003        0.034219341476551       -0.116901685194083        0.003458906627626
Mo          4.956912864607505        6.688761025610512       10.000007589386426        0.060620726079079       -0.120515886522006        0.000000000000000
Se          4.957825045696413        8.603913768925208        8.330514374958828        0.034213685047070       -0.116893971881155       -0.003461220621505
Se          4.957825045696413        8.603913768925208       11.669498148265003        0.034213685047070       -0.116893971881155        0.003461220621505
Mo          3.297194726128292        9.563475163476177       10.000007589386426        0.060622782962527       -0.120516657853299        0.000000000000000
Se          3.298106907217201       11.478627906790873        8.330514374958828        0.034235025212839       -0.116859519083407       -0.003431652921945
Se          3.298106907217201       11.478627906790873       11.669498148265003        0.034235025212839       -0.116859519083407        0.003431652921945
Mo         11.632017729374612        0.876579470950541       10.000007589386426       -1.000909567538782        1.665063348816300        0.000000000000000
Se         11.572698075330853        2.896047490930421        8.330514374958828        0.541425716607583       -0.874753192382503       -0.145620149000370
Se         11.572698075330853        2.896047490930421       11.669498148265003        0.541425716607583       -0.874753192382503        0.145620149000370
Mo          9.972295607571866        3.751294936590716       10.000007589386426       -1.000857374121298        1.665136368178692        0.000000000000000
Se          9.912982592400663        5.770761628796085        8.330514374958828        0.541384578938630       -0.874735965983629       -0.145612949908304
Se          9.912982592400663        5.770761628796085       11.669498148265003        0.541384578938630       -0.874735965983629        0.145612949908304
Mo          8.312577469092654        6.626009074456380       10.000007589386426       -1.000828063532169        1.665127626424039        0.000000000000000
Se          8.253264453921449        8.645477094436259        8.330514374958828        0.541388178484664       -0.874742136633972       -0.145615263902182
Se          8.253264453921449        8.645477094436259       11.669498148265003        0.541388178484664       -0.874742136633972        0.145615263902182
Mo          6.652859330613441        9.500723212322045       10.000007589386426       -1.000834234182512        1.665125055319729        0.000000000000000
Se          6.593546315442238       11.520188576752904        8.330514374958828        0.541399748454057       -0.874680944351405       -0.145597523282446
Se          6.593546315442238       11.520188576752904       11.669498148265003        0.541399748454057       -0.874680944351405        0.145597523282446
