# total energy = -9509.26227569455 eV 

 CRYSTAL
 PRIMVEC
        8.630457589390799        0.000000000000000        0.000000000000000
       -4.315228794695400        7.474192033852167        0.000000000000000
        0.000000000000000        0.000000000000000       20.000041178044860
 PRIMCOORD
12 1
Se          4.285149060859095        7.443064562464511        8.134670596619138       -0.008526039000871       -0.020332807100717        2.672223270931578
Se         -0.013283137275831        7.452552024492528        8.152888629544583        0.020163371326718        0.049801262034097        2.675385215011453
Se          6.464376713147907        3.704705909593100        8.194257864953569       -0.063111611934163       -0.020009619289008        2.607769028326972
Se          2.133922928219063        3.714933001836528        8.154751082292373        0.038274744303991       -0.002424037143036        2.672115798771439
Se          4.292228625219673        7.442242942902001       11.848252931842925        0.081278520764522       -0.008017474568444       -2.689169419435767
Se         -0.024203255263688        7.447322830239116       11.831670370630670       -0.063804781656016        0.011576140043280       -2.672564970694316
Se          6.453960613883271        3.718220343132327       11.866193927079751       -0.015405542801911        0.039550526262386       -2.725630249649377
Se          2.117128057750108        3.718632879005100       11.859881610398871       -0.003663823641097       -0.041097302615006       -2.685815670974401
Mo          2.139466271128729        1.218355656573987       10.016518571750311        0.006783601610295       -0.004778140248852        0.031922316886407
Mo          6.421586904419707        1.236144755757239        9.970700335453994        0.006429046326009       -0.013485956324408       -0.016048061768866
Mo         -0.036158165116512        4.964322057810445       10.010832826290420        0.008251445060612       -0.019811644257173        0.082836609976105
Mo          4.306590569694178        4.951093292417427        9.988473036767827       -0.006669187468520        0.029029567427742        0.046976646839635
