# total energy = -9520.569322637435 eV 

 CRYSTAL
 PRIMVEC
        5.709346257185899        0.000000000000000        0.000000000000000
       -2.854673128592950        4.944436592379419        0.000000000000000
        0.000000000000000        0.000000000000000       19.999925579116063
 PRIMCOORD
12 1
Se          2.846236998563332        4.925942877983142        7.951986601962533       -0.204307661749105        0.035385851501790        1.525078803352014
Se         -0.013204005088994        4.937721259311716        7.929861172412060        0.032446565055122       -0.014091965610167        1.682755374680688
Se          4.256645351207251        2.461876957314069        7.931886277529483        0.098679497621069       -0.052703267468277        1.523214238506735
Se          1.397365351119378        2.462935470110151        7.996470973325396        0.062412785782830        0.006577399044669        1.543717509823175
Se          2.828137799993427        4.941292455395586       12.005829122899032       -0.093341885074461       -0.021203125909497       -1.529308269941210
Se         -0.026277266148698        4.931911428560404       12.059269745735541        0.105356912623380       -0.019319792002758       -1.497295964403970
Se          4.246327991585890        2.466342237021814       12.073447194361387        0.169480768324209       -0.079341450777714       -1.537648932321363
Se          1.410745775007718        2.460179568671807       12.031635938916136       -0.127954348399941        0.057510975416689       -1.646469893780989
Mo          1.402231997869003        0.802654152912737        9.995641385375967        0.121445854950767        0.094737223383249       -0.018319375315915
Mo          4.261629610489774        0.821351120035769       10.004100352790614       -0.040311316027579       -0.008265329023883        0.064727293882279
Mo         -0.021464287253890        3.291676197006596        9.965711279491922       -0.029561271798955       -0.020847285073056       -0.368493754968676
Mo          2.849037432902481        3.276198730237990       10.031846062796660       -0.094345901307337        0.021560252298092        0.258043227597663
