# total energy = -9525.007102019294 eV 

 CRYSTAL
 PRIMVEC
        6.572434350304899        0.000000000000000        0.000000000000000
       -3.286217175152450        5.691892458222800        0.000000000000000
        0.000000000000000        0.000000000000000       20.000068893967864
 PRIMCOORD
12 1
Se          3.311879245073215        5.683728180272851        8.084976271564837       -0.599158835436616       -0.193498739231792        2.740721603504662
Se         -0.052756273286462        5.623825699117303        7.897370733739430        0.183655266382712        0.137271773307289        3.543876997068929
Se          4.844273861531684        2.845081296750900        7.842031493753297        0.282852841522154       -0.244214285958363        3.475437028563672
Se          1.673922788784194        2.785237310261069        8.043688896219656       -0.212216892826117        0.287753880557002        3.066248863025295
Se          3.188579719418060        5.722459535899199       11.957054329512550        0.413119384027666       -0.442866289557769       -2.971346060524512
Se         -0.034256185077224        5.647431254329858       11.941328465842576       -0.154689976562709        0.184488818399866       -2.869124866717049
Se          4.950055220669536        2.781716457179610       12.062102862220344       -0.235925302774832        0.214443469158180       -3.268301923405363
Se          1.597060798031119        2.849805562561899       12.058468963268060        0.346540637932086       -0.165475502030806       -3.181897134868477
Mo          1.567751027045934        0.933032639020809        9.916410078527829        0.735652592579838       -0.076548974387121        0.640222456585167
Mo          4.891627593782196        0.928019186098396       10.045967218927910       -0.076316546557538        0.119413139883644       -0.411924848965453
Mo          0.016632859610317        3.727874247597978       10.137646105680313       -0.374398810236400        0.073312725392701       -0.766747270989003
Mo          3.314509533300207        3.745871544579418        9.999896425862577       -0.309114615160674        0.105919727356738        0.002835413832562
