# total energy = -9513.506909403006 eV 

 CRYSTAL
 PRIMVEC
        6.771563749103600        0.000000000000000        0.000000000000000
       -3.385781874551800        5.864343495817446        0.000000000000000
        0.000000000000000        0.000000000000000       19.999962507379962
 PRIMCOORD
12 1
Se          3.371589354090054        5.851125403379195        7.619872752085302       -0.017697168073006        0.011780285725458        3.757084022164650
Se         -0.021562013289896        5.842758459210803        7.628734020407379       -0.010462337656387       -0.034652829663140        3.877144823223868
Se          5.055801178108728        2.922732865198847        7.606670911400051        0.051028450121041        0.012835724044525        3.785386481293654
Se          1.669627230015855        2.913831644650651        7.662016256234224       -0.046291447541142        0.015419940986045        3.929834720949736
Se          3.375207400601200        5.843220279858492       12.366408487895971       -0.035618022220942       -0.000058621178258       -3.937433105515723
Se         -0.018631957655659        5.856233871071518       12.336939319616247       -0.000450457475032        0.048270940749058       -3.935650044677056
Se          5.036019408928471        2.928539481113703       12.388949669303987       -0.035566085913889       -0.035417733195229       -3.842762987954954
Se          1.653929390932683        2.928694549923558       12.362684804990337        0.062959402559038       -0.022287360596831       -3.902950482957876
Mo          1.661328001484953        0.960174558960520       10.017100444004090        0.033435925993434        0.009353677478112        0.073980184071458
Mo          5.051426070770432        0.973417706184642       10.024890450941058       -0.007857037659528        0.007746480174218        0.169761275804380
Mo         -0.032450687798454        3.899390764637435        9.977130611818630        0.028786598070490        0.022872029716820       -0.169440401986550
Mo          3.357064349848227        3.888687630975602       10.037018998772078       -0.022268334424940       -0.035862791351210        0.195046286915706
