# total energy = -38120.37518258567 eV 

 CRYSTAL
 PRIMVEC
       13.277745107833699        0.000000000000000        0.000000000000000
       -6.638872553916849       11.498859207011680        0.000000000000000
        0.000000000000000        0.000000000000000       20.000015178772852
 PRIMCOORD
48 1
Mo          1.559852234199663        0.900573684134907       10.000007589386426        2.161341502190056        1.247851280948706        0.000000000000000
Se          1.635515464696653        2.860735327816137        8.284043594855920       -0.041793814772461       -0.024151668331679        0.970910950896774
Se          1.635515464696653        2.860735327816137       11.715968928367911       -0.041793814772461       -0.024151668331679       -0.970910950896774
Mo         -0.099865904279550        3.775289149775082       10.000007589386426        2.161384953852888        1.247862850918099        0.000000000000000
Se         -0.024202673782559        5.735449465681802        8.284043594855920       -0.041809241398318       -0.024136498816253        0.970901180700398
Se         -0.024202673782559        5.735449465681802       11.715968928367911       -0.041809241398318       -0.024136498816253       -0.970901180700398
Mo         -1.759582714984251        6.650003287640746       10.000007589386426        2.161392152944955        1.247880334427404        0.000000000000000
Se         -1.683920812261772        8.610164931321977        8.284043594855920       -0.041807441625301       -0.024139584141424        0.970901180700398
Se         -1.683920812261772        8.610164931321977       11.715968928367911       -0.041807441625301       -0.024139584141424       -0.970901180700398
Mo         -3.419300853463464        9.524717425506411       10.000007589386426        2.161373383883495        1.247882905531714        0.000000000000000
Se         -3.343638950740984       11.484877741413129        8.284043594855920       -0.041812840944351       -0.024118758196517        0.970910950896774
Se         -3.343638950740984       11.484877741413129       11.715968928367911       -0.041812840944351       -0.024118758196517       -0.970910950896774
Mo          5.029288525415796        0.987176448826241       10.000007589386426       -1.998576972543232       -1.153918556103913        0.000000000000000
Se          4.953848361036616        2.860097996050961        8.376985155061734       -0.039598348802543       -0.022862002410013       -1.389145546948273
Se          4.953848361036616        2.860097996050961       11.623028695936608       -0.039598348802543       -0.022862002410013        1.389145546948273
Mo          3.369570386936583        3.861891914466417       10.000007589386426       -1.998611168230549       -1.153859163594363        0.000000000000000
Se          3.294131550331915        5.734813461691136        8.376985155061734       -0.039565181556950       -0.022883599686213       -1.389133976978880
Se          3.294131550331915        5.734813461691136       11.623028695936608       -0.039565181556950       -0.022883599686213        1.389133976978880
Mo          1.709852248457371        6.736606052332081       10.000007589386426       -1.998595741604691       -1.153869705122032        0.000000000000000
Se          1.634413411852703        8.609527599556801        8.376985155061734       -0.039607861888489       -0.022867658839494       -1.389149146494306
Se          1.634413411852703        8.609527599556801       11.623028695936608       -0.039607861888489       -0.022867658839494        1.389149146494306
Mo          0.050134109978158        9.611320190197745       10.000007589386426       -1.998578258095386       -1.153899787042453        0.000000000000000
Se         -0.025306054401020       11.484237754098933        8.376985155061734       -0.039600148575560       -0.022822664514077       -1.389133976978880
Se         -0.025306054401020       11.484237754098933       11.623028695936608       -0.039600148575560       -0.022822664514077        1.389133976978880
Mo          8.198724788116513        0.900573684134907       10.000007589386426        2.161393181386678        1.247844596077502        0.000000000000000
Se          8.274388018613502        2.860735327816137        8.284043594855920       -0.041807698735732       -0.024139584141424        0.970907351350741
Se          8.274388018613502        2.860735327816137       11.715968928367911       -0.041807698735732       -0.024139584141424       -0.970907351350741
Mo          6.539006649637300        3.775289149775082       10.000007589386426        2.161400637589176        1.247885219525592        0.000000000000000
Se          6.614669880134290        5.735449465681802        8.284043594855920       -0.041809241398318       -0.024136755926684        0.970907351350741
Se          6.614669880134290        5.735449465681802       11.715968928367911       -0.041809241398318       -0.024136755926684       -0.970907351350741
Mo          4.879288511158087        6.650003287640746       10.000007589386426        2.161361813914102        1.247899103488864        0.000000000000000
Se          4.954951741655077        8.610164931321977        8.284043594855920       -0.041795357435047       -0.024154239435989        0.970908636902896
Se          4.954951741655077        8.610164931321977       11.715968928367911       -0.041795357435047       -0.024154239435989       -0.970908636902896
Mo          3.219570372678875        9.524717425506411       10.000007589386426        2.161418892429774        1.247895761053261        0.000000000000000
Se          3.295233603175865       11.484877741413129        8.284043594855920       -0.041815926269523       -0.024118758196517        0.970908636902896
Se          3.295233603175865       11.484877741413129       11.715968928367911       -0.041815926269523       -0.024118758196517       -0.970908636902896
Mo         11.668158423783623        0.987176448826241       10.000007589386426       -1.998567716567717       -1.153918556103913        0.000000000000000
Se         11.592718259404444        2.860097996050961        8.376985155061734       -0.039573666201172       -0.022864316403892       -1.389150432046461
Se         11.592718259404444        2.860097996050961       11.623028695936608       -0.039573666201172       -0.022864316403892        1.389150432046461
Mo         10.008446924176964        3.861891914466417       10.000007589386426       -1.998636107942351       -1.153885388858320        0.000000000000000
Se          9.933002776474254        5.734813461691136        8.376985155061734       -0.039589349937460       -0.022856860201394       -1.389145546948273
Se          9.933002776474254        5.734813461691136       11.623028695936608       -0.039589349937460       -0.022856860201394        1.389145546948273
Mo          8.348724802374219        6.736606052332081       10.000007589386426       -1.998612196672272       -1.153926783637703        0.000000000000000
Se          8.273284637995042        8.609527599556801        8.376985155061734       -0.039587807274874       -0.022839633802520       -1.389150432046461
Se          8.273284637995042        8.609527599556801       11.623028695936608       -0.039587807274874       -0.022839633802520        1.389150432046461
Mo          6.689006663895007        9.611320190197745       10.000007589386426       -1.998606540242791       -1.153851193171003        0.000000000000000
Se          6.613566499515829       11.484237754098933        8.376985155061734       -0.039566467109105       -0.022843747569415       -1.389109037267078
Se          6.613566499515829       11.484237754098933       11.623028695936608       -0.039566467109105       -0.022843747569415        1.389109037267078
