# total energy = -38121.831791477416 eV 

 CRYSTAL
 PRIMVEC
       13.277745107833699        0.000000000000000        0.000000000000000
       -6.638872553916849       11.498859207011680        0.000000000000000
        0.000000000000000        0.000000000000000       20.000015178772852
 PRIMCOORD
48 1
Mo          1.557398506903735        0.899156948731901       10.000007589386426        2.145375972869527        1.238633357778138        0.000000000000000
Se          1.583817236344792        2.830886956813727        8.346279041725358        0.179460252591264        0.103572052011696       -0.175768146802763
Se          1.583817236344792        2.830886956813727       11.653738792596515        0.179460252591264        0.103572052011696        0.175768146802763
Mo         -0.102319631575477        3.773871086597566       10.000007589386426        2.145429708949596        1.238676809440969        0.000000000000000
Se         -0.075900902134421        5.705602422453902        8.346279041725358        0.179432227554290        0.103597505944360       -0.175773546121813
Se         -0.075900902134421        5.705602422453902       11.653738792596515        0.179432227554290        0.103597505944360        0.175773546121813
Mo         -1.762037770054689        6.648586552237742       10.000007589386426        2.145427394955718        1.238663182588128        0.000000000000000
Se         -1.735619040613633        8.580316560319567        8.346279041725358        0.179434027327307        0.103594163508758       -0.175773546121813
Se         -1.735619040613633        8.580316560319567       11.653738792596515        0.179434027327307        0.103594163508758        0.175773546121813
Mo         -3.421755908533902        9.523302017877915       10.000007589386426        2.145440507587697        1.238658040379509        0.000000000000000
Se         -3.395337179092845       11.455028042636210        8.346279041725358        0.179426056903947        0.103631187410815       -0.175768146802763
Se         -3.395337179092845       11.455028042636210       11.653738792596515        0.179426056903947        0.103631187410815        0.175768146802763
Mo          4.909645419798128        0.918100307677247       10.000007589386426        0.380514181836645        0.219675409317667        0.000000000000000
Se          4.952654691751422        2.859408881079864        8.351611384160664       -0.174134981345342       -0.100536863374282       -0.141309435514993
Se          4.952654691751422        2.859408881079864       11.648398483514146       -0.174134981345342       -0.100536863374282        0.141309435514993
Mo          3.249927281318915        3.792815773317423       10.000007589386426        0.380501583425528        0.219697263704298        0.000000000000000
Se          3.292936553272210        5.734124346720040        8.351611384160664       -0.174136266897496       -0.100530949834370       -0.141301207981202
Se          3.292936553272210        5.734124346720040       11.648398483514146       -0.174136266897496       -0.100530949834370        0.141301207981202
Mo          1.590210470614214        6.667531238957598       10.000007589386426        0.380541949763188        0.219675666428098        0.000000000000000
Se          1.633218414792998        8.608838484585704        8.351611384160664       -0.174125982480258       -0.100531721165663       -0.141312006619302
Se          1.633218414792998        8.608838484585704       11.648398483514146       -0.174125982480258       -0.100531721165663        0.141312006619302
Mo         -0.069508995639509        9.542245376823262       10.000007589386426        0.380515724499231        0.219721174974376        0.000000000000000
Se         -0.026499723686214       11.483557933549411        8.351611384160664       -0.174130353357585       -0.100540977141177       -0.141301207981202
Se         -0.026499723686214       11.483557933549411       11.648398483514146       -0.174130353357585       -0.100540977141177        0.141301207981202
Mo          8.278946268509022        0.946889114620052       10.000007589386426        0.341050301789491        0.196880512730133        0.000000000000000
Se          8.322158689962466        2.888315859954129        8.348885463090024       -0.204659131708220       -0.118166411403947       -0.112081378834555
Se          8.322158689962466        2.888315859954129       11.651128387908315       -0.204659131708220       -0.118166411403947        0.112081378834555
Mo          6.619228130029809        3.821603252485717       10.000007589386426        0.341042588476562        0.196901081564609        0.000000000000000
Se          6.662440551483254        5.763029997819793        8.348885463090024       -0.204664531027270       -0.118156641207571       -0.112081378834555
Se          6.662440551483254        5.763029997819793       11.651128387908315       -0.204664531027270       -0.118156641207571        0.112081378834555
Mo          4.959509991550597        6.696318718125892       10.000007589386426        0.341028704513290        0.196918050853052        0.000000000000000
Se          5.002722413004042        8.637745463459970        8.348885463090024       -0.204645761965810       -0.118177981373340       -0.112078293509383
Se          5.002722413004042        8.637745463459970       11.651128387908315       -0.204645761965810       -0.118177981373340        0.112078293509383
Mo          3.299791853071385        9.571034183766068       10.000007589386426        0.341032046948893        0.196894910914266        0.000000000000000
Se          3.343004274524830       11.512458273551122        8.348885463090024       -0.204667873462872       -0.118139414808697       -0.112078293509383
Se          3.343004274524830       11.512458273551122       11.651128387908315       -0.204667873462872       -0.118139414808697        0.112078293509383
Mo         11.646248816581187        0.974526741062008       10.000007589386426       -0.103935349050634       -0.060056625793566        0.000000000000000
Se         11.673207950248132        2.906566120604846        8.339143581504407       -1.182174992465775       -0.682520722023160       -0.885897901122643
Se         11.673207950248132        2.906566120604846       11.660867613944912       -1.182174992465775       -0.682520722023160        0.885897901122643
Mo          9.986533333650996        3.849242206702183       10.000007589386426       -0.103955660774679       -0.060028086535730        0.000000000000000
Se         10.013487156219899        5.781281586245022        8.339143581504407       -1.182153652300006       -0.682516865366696       -0.885892244693162
Se         10.013487156219899        5.781281586245022       11.660867613944912       -1.182153652300006       -0.682516865366696        0.885892244693162
Mo          8.326815195171784        6.723956344567847       10.000007589386426       -0.103963631198039       -0.060014202572458        0.000000000000000
Se          8.353769017740685        8.655995724110685        8.339143581504407       -1.182167793373708       -0.682533063323846       -0.885897901122643
Se          8.353769017740685        8.655995724110685       11.660867613944912       -1.182167793373708       -0.682533063323846        0.885897901122643
Mo          6.667097056692572        9.598670482433512       10.000007589386426       -0.103978286492603       -0.059982320879020        0.000000000000000
Se          6.694050879261473       11.530708534201841        8.339143581504407       -1.182125113042170       -0.682500410299115       -0.885853678128518
Se          6.694050879261473       11.530708534201841       11.660867613944912       -1.182125113042170       -0.682500410299115        0.885853678128518
