# total energy = -9528.121003441105 eV 

 CRYSTAL
 PRIMVEC
        6.638793177329500        0.000000000000000        0.000000000000000
       -3.319396588664750        5.749360861396781        0.000000000000000
        0.000000000000000        0.000000000000000       19.999981854470612
 PRIMCOORD
12 1
Se          3.300043842673517        5.743454327106910        8.121116195549986        0.020560606942542       -0.061193568119245        2.404992973415061
Se         -0.031752020008532        5.739283837232912        8.077069130577039        0.044091096473036       -0.001727524985581        2.689140365957069
Se          4.954671426777048        2.857421560075287        8.116427215928837        0.017486594630054       -0.006787972487621        2.410251138838504
Se          1.628507916226646        2.868293247782482        8.105548889428466        0.017983331982658       -0.027765098328309        2.529036157939327
Se          3.292114468102515        5.730910991277664       11.876712698293217        0.048489741725800       -0.045038291300671       -2.641285686995726
Se         -0.027697709015136        5.730146866182953       11.880081885830712        0.051189401250819        0.020968126975605       -2.627114788483256
Se          4.972904208359266        2.849765039903873       11.907547237084641       -0.091237950417963        0.034149664549763       -2.833744671644740
Se          1.644561845888064        2.850599536206263       11.889567393522480       -0.035173221175391        0.090448107174072       -2.722318924409118
Mo          1.641415057922009        0.946442952343037       10.002870835715632       -0.026743084365266       -0.016183301855548       -0.080410773060052
Mo          4.962397654276824        0.934617933935578        9.979265278814999       -0.145895771382353        0.092267420583503        0.220637259439866
Mo         -0.032315653549287        3.828293279672943        9.982882757217327        0.118399867675253       -0.109812893502246        0.173384990218248
Mo          3.300940743631774        3.811587420521511        9.960994656111671       -0.019150870449621        0.030675331296279        0.477431958784816
