# total energy = -9524.382176524517 eV 

 CRYSTAL
 PRIMVEC
        6.506022605555400        0.000000000000000        0.000000000000000
       -3.253011302777700        5.634378226976116        0.000000000000000
        0.000000000000000        0.000000000000000       19.999994935150113
 PRIMCOORD
12 1
Se          3.237609595463569        5.615582978270926        8.566478012928014       -0.006655817726110        0.051586893977074       -5.736266126459286
Se         -0.012248888759479        5.611626015322228        8.571492204550115       -0.188300223428330        0.352117620289912       -6.242056851557484
Se          4.846559395453588        2.805116537941189        8.596832511996494        0.142063540408981        0.116735077634825       -6.671034806966403
Se          1.595818043962966        2.795959311123870        8.590049983430202        0.303543289232328        0.138127951042366       -6.477512670685393
Se          3.232836777280133        5.624764927974146       11.458452555062410       -0.097914594088980        0.033763227572039        5.701785817895317
Se         -0.023329295859001        5.621975145480884       11.403813676016433        0.161301057073834        0.087746133655174        6.885229650337851
Se          4.862954572419588        2.798781623730160       11.429956176050077        0.074211840569747        0.111525763193263        6.415249523173379
Se          1.586700503883541        2.810155452449192       11.402463676325782        0.262216387002480        0.010363607250900        7.020346324012882
Mo          1.605888716354106        0.928489449890804       10.013413536789972       -0.295242736079404       -0.474424280963514       -0.587484222098281
Mo          4.858431585504206        0.932983159704461       10.000260310888320        0.445700417838177       -0.516211925085632        0.023743634077755
Mo         -0.019097778756347        3.752262658255684        9.999779515817769       -0.482243780500123       -0.267356538738116       -0.232455340398674
Mo          3.237154824483440        3.744123623976134       10.015637945918812       -0.318679380302600        0.356026213061278       -0.099544931331661
