# total energy = -38122.124279427364 eV 

 CRYSTAL
 PRIMVEC
       13.277745107833699        0.000000000000000        0.000000000000000
       -6.638872553916849       11.498859207011680        0.000000000000000
        0.000000000000000        0.000000000000000       20.000015178772852
 PRIMCOORD
48 1
Mo          1.692755823856524        0.925226473476622       10.000007589386426       -0.794812417190235       -0.293608027959398        0.000000000000000
Se          1.644548314693512        2.843815497225225        8.330514374958828       -0.022237995394087        0.044140975896641       -0.009024319016060
Se          1.644548314693512        2.843815497225225       11.669498148265003       -0.022237995394087        0.044140975896641        0.009024319016060
Mo         -0.037666307321903        3.759119511782762       10.000007589386426        0.936558940437850        0.610006067408141        0.000000000000000
Se         -0.023388748007449        5.734724500798913        8.428512100501704       -0.071067894220040       -0.039283902745486       -0.872955990470134
Se         -0.023388748007449        5.734724500798913       11.571508389369191       -0.071067894220040       -0.039283902745486        0.872955990470134
Mo         -1.743869831423641        6.705529489907197       10.000007589386426        0.989449898520724        0.509765909471180        0.000000000000000
Se         -1.693909659906395        8.626403613588858        8.341099393358791        0.022027421951136       -0.037865938718774       -0.090906535072463
Se         -1.693909659906395        8.626403613588858       11.658918440963083        0.022027421951136       -0.037865938718774        0.090906535072463
Mo         -3.337904292628910        9.628809636053784       10.000007589386426       -0.582546673382237       -0.452500217405622        0.000000000000000
Se         -3.346575987958837       11.486757870120400        8.233659863269734        0.103108224794255        0.035814968811053        0.749026448756349
Se         -3.346575987958837       11.486757870120400       11.766357971052141        0.103108224794255        0.035814968811053       -0.749026448756349
Mo          4.901283095929214        0.917146965578505       10.000007589386426        0.153603170771066       -0.047515807413346        0.000000000000000
Se          4.948026069806831        2.872804798119158        8.398010464439988       -0.003638369708432       -0.047561058849194       -0.501462270993085
Se          4.948026069806831        2.872804798119158       11.602008697656395       -0.003638369708432       -0.047561058849194        0.501462270993085
Mo          3.263506431240697        3.872394610846713       10.000007589386426        0.012112215291820       -0.120241292581747        0.000000000000000
Se          3.287140817532641        5.746844426533344        8.263018285477663        0.044634627924073       -0.030322318674579        0.472236271196094
Se          3.287140817532641        5.746844426533344       11.736998221069697        0.044634627924073       -0.030322318674579       -0.472236271196094
Mo          1.684502377497495        6.725844439922181       10.000007589386426        0.061247047088884        0.022648086531459        0.000000000000000
Se          1.640522502376817        8.598723498362556        8.255727475638952       -0.002735654985352        0.050287972079894        0.520993407770087
Se          1.640522502376817        8.598723498362556       11.744287703133898       -0.002735654985352        0.050287972079894       -0.520993407770087
Mo          0.011562260439902        9.517729348256157       10.000007589386426       -0.115997684918849        0.059010443450013        0.000000000000000
Se         -0.016611786904411       11.471647796187684        8.389932284316382       -0.047907129489258        0.070589411708034       -0.370472733955730
Se         -0.016611786904411       11.471647796187684       11.610077583358427       -0.047907129489258        0.070589411708034        0.370472733955730
Mo          8.292780351136873        1.001330525111192       10.000007589386426       -0.094341016209149       -0.078065925929750        0.000000000000000
Se          8.273506376338341        2.859030465344291        8.232516649415949        0.018083090829868        0.010380319428912        0.677921787744683
Se          8.273506376338341        2.859030465344291       11.767498529356903        0.018083090829868        0.010380319428912       -0.677921787744683
Mo          6.671910239294162        3.799940611342286       10.000007589386426       -0.028780684530578        0.152944196736531        0.000000000000000
Se          6.623702730131149        5.718530962865399        8.330514374958828       -0.047506294327400        0.081961920289999       -0.004130993294141
Se          6.623702730131149        5.718530962865399       11.669498148265003       -0.047506294327400        0.081961920289999        0.004130993294141
Mo          4.941488108115735        6.633834977422937       10.000007589386426       -0.073406570699999        0.027322097055775        0.000000000000000
Se          4.955765667430188        8.609438638664578        8.428512100501704       -0.014819331019336       -0.007561617774362       -0.745104486242575
Se          4.955765667430188        8.609438638664578       11.571508389369191       -0.014819331019336       -0.007561617774362        0.745104486242575
Mo          3.235285911788507        9.580244955547371       10.000007589386426       -0.016798310006390       -0.046202744442463        0.000000000000000
Se          3.285244755531242       11.501117751454521        8.341099393358791        0.048442690516935       -0.136820544500964       -0.168747746485559
Se          3.285244755531242       11.501117751454521       11.658918440963083        0.048442690516935       -0.136820544500964        0.168747746485559
Mo         11.618498329305813        0.887183078193657       10.000007589386426        0.021674409329436        0.274455871957622        0.000000000000000
Se         11.600128568949126        2.850041431906288        8.405301274278699       -0.363197280091020       -0.292432519069075       -0.990410977311631
Se         11.600128568949126        2.850041431906288       11.594717887817684       -0.363197280091020       -0.292432519069075        0.990410977311631
Mo          9.880437511366852        3.791861103444169       10.000007589386426        0.078147687046794        0.049775550991002        0.000000000000000
Se          9.927180485244468        5.747520263759333        8.398010464439988       -0.423065958159559       -0.162047962875756       -0.927490398427666
Se          9.927180485244468        5.747520263759333       11.602008697656395       -0.423065958159559       -0.162047962875756        0.927490398427666
Mo          8.242660846678335        6.747110076486889       10.000007589386426        0.121203142703947       -0.267158820816712        0.000000000000000
Se          8.266295232970277        8.621559892173519        8.263018285477663        0.175659389090469        0.179901196980351        0.710353183284379
Se          8.266295232970277        8.621559892173519       11.736998221069697        0.175659389090469        0.179901196980351       -0.710353183284379
Mo          6.663656792935132        9.600559905562356       10.000007589386426        0.036180065623008       -0.011978260757292        0.000000000000000
Se          6.619678245588965       11.473437636228219        8.255727475638952        0.232473852349703        0.086490406310394        0.795335636917227
Se          6.619678245588965       11.473437636228219       11.744287703133898        0.232473852349703        0.086490406310394       -0.795335636917227
