# total energy = -9526.954384357072 eV 

 CRYSTAL
 PRIMVEC
        6.107710890233100        0.000000000000000        0.000000000000000
       -3.053855445116550        5.289430323714121        0.000000000000000
        0.000000000000000        0.000000000000000       20.000047449589029
 PRIMCOORD
12 1
Se          3.021143156359550        5.239899231478685        8.233237034010450        0.165680933265138        0.475130563317345        0.602520554321342
Se         -0.010664673985436        5.247996834576957        8.307994193764726       -0.409119774163743        1.994155187351682       -2.506723857630694
Se          4.605264094465057        2.627190306999714        8.100178109182366       -0.604895483372065       -0.022873315268975        0.868326202939942
Se          1.541475068356632        2.590531215465446        8.243894989513906        0.195372817163017       -0.213346893170161       -0.475245491679982
Se          3.051162555385046        5.285559256551891       11.650142143695524       -1.075856229720196       -0.120497374570977        1.695260711821436
Se         -0.013353899090406        5.269654166622635       12.014352884104282        0.078384999974564        0.169821182534793       -2.039310721008869
Se          4.545582597501144        2.656091384161208       11.848654352278791        0.293499784467966        0.036648520828206       -1.126462761624042
Se          1.446511768664199        2.634300293247035       11.919431727616990        0.348975730823653        0.312225651375220       -1.595994231086499
Mo          1.530086019859614        0.872477949874552       10.082176711665772        0.553364382358509        0.336579665616060       -0.896552814491814
Mo          4.505912404497991        0.917329314025890        9.995686639291360        0.788577746350028       -0.184919478371714        0.776626225077555
Mo         -0.000929593597493        3.563543308135413        9.834253732751607       -0.519647691774473       -2.291441951357172        5.079347689819249
Mo          3.027197730165038        3.487987870567784       10.028961448221349        0.185662527517172       -0.491481758284306       -0.381791249347194
