# total energy = -38121.9086073439 eV 

 CRYSTAL
 PRIMVEC
       13.277745107833699        0.000000000000000        0.000000000000000
       -6.638872553916849       11.498859207011680        0.000000000000000
        0.000000000000000        0.000000000000000       20.000015178772852
 PRIMCOORD
48 1
Mo          1.651750163640001        0.934453178552055       10.000007589386426        0.439997194258752        0.987246462127447        0.000000000000000
Se          1.673075550057693        2.921912538400481        8.316697553399614       -0.451729914554483       -0.650918764733722        0.050824561549295
Se          1.673075550057693        2.921912538400481       11.683318953147747       -0.451729914554483       -0.650918764733722       -0.050824561549295
Mo         -0.020012217426527        3.818907870228827       10.000007589386426       -0.385745864885700       -0.346317208967587        0.000000000000000
Se         -0.014418303412597        5.771847748345906        8.388068088903243       -0.319322156379985       -0.448107228582339       -0.838345069807239
Se         -0.014418303412597        5.771847748345906       11.611948417644120       -0.319322156379985       -0.448107228582339        0.838345069807239
Mo         -1.698482515321533        6.702924396317040       10.000007589386426       -0.477881387818124       -0.929969714313357        0.000000000000000
Se         -1.716197682844405        8.571042055361744        8.379902275661925        0.307183201603346        0.527269473389678       -0.699567143595421
Se         -1.716197682844405        8.571042055361744       11.620118214208970        0.307183201603346        0.527269473389678        0.699567143595421
Mo         -3.357745227143546        9.573647244003290       10.000007589386426        0.236129191346578       -0.048665605260573        0.000000000000000
Se         -3.374133947930146       11.423867830417144        8.303483541468298        0.393818361086368        0.686007910798191        0.223931101170820
Se         -3.374133947930146       11.423867830417144       11.696527653981022        0.393818361086368        0.686007910798191       -0.223931101170820
Mo          4.959142198011111        0.944193732363162       10.000007589386426       -0.170213018831567       -0.705044624216469        0.000000000000000
Se          4.964736112025041        2.897132282705730        8.388068088903243       -0.269709870512639       -0.500842634854485       -0.851590627878705
Se          4.964736112025041        2.897132282705730       11.611948417644120       -0.269709870512639       -0.500842634854485        0.851590627878705
Mo          3.280671900116104        3.828208930676864       10.000007589386426        0.213369261777654       -0.391818299043975        0.000000000000000
Se          3.262956732593233        5.696326589721569        8.379902275661925        0.312778181691340        0.588572313442078       -0.746743822350338
Se          3.262956732593233        5.696326589721569       11.620118214208970        0.312778181691340        0.588572313442078        0.746743822350338
Mo          1.621409188294090        6.698931778363113       10.000007589386426        0.402516406965547        0.104123296775662        0.000000000000000
Se          1.605021795282002        8.549149709227947        8.303483541468298        0.356084320018673        0.684341320984747        0.291864819237528
Se          1.605021795282002        8.549149709227947       11.696527653981022        0.356084320018673        0.684341320984747       -0.291864819237528
Mo         -0.019275302573042        9.561879178514216       10.000007589386426        0.014241346770551        0.239592468851531        0.000000000000000
Se         -0.011535704949686       11.485848344580512        8.264420415361052       -0.168513261772529       -0.098168876305194        0.805705671928901
Se         -0.011535704949686       11.485848344580512       11.735598746735333       -0.168513261772529       -0.098168876305194       -0.805705671928901
Mo          8.259826315553742        0.953494792811200       10.000007589386426        0.111809355998605       -1.110486947886274        0.000000000000000
Se          8.242112475805381        2.821612451855905        8.379902275661925        0.270757595518778        0.511570310475617       -0.691010765563698
Se          8.242112475805381        2.821612451855905       11.620118214208970        0.270757595518778        0.511570310475617        0.691010765563698
Mo          6.600563603731728        3.824216312722939       10.000007589386426        0.399866883974565        0.088551917745785        0.000000000000000
Se          6.584176210719639        5.674434243587773        8.303483541468298        0.350416834789151        0.685663639931144        0.291097601711561
Se          6.584176210719639        5.674434243587773       11.696527653981022        0.350416834789151        0.685663639931144       -0.291097601711561
Mo          4.959879112864595        6.687163712874041       10.000007589386426        0.029935367475993        0.238522375237900        0.000000000000000
Se          4.967620038262462        8.611136862263871        8.264420415361052       -0.048197407165805       -0.061274815015427        0.830558480405792
Se          4.967620038262462        8.611136862263871       11.735598746735333       -0.048197407165805       -0.061274815015427       -0.830558480405792
Mo          3.311468302119214        9.558596919923559       10.000007589386426       -0.239622293661521        0.082883918295400        0.000000000000000
Se          3.332795016311416       11.546057607546494        8.316697553399614       -0.515442907786648       -0.733935094901064        0.182995521016884
Se          3.332795016311416       11.546057607546494       11.683318953147747       -0.515442907786648       -0.733935094901064       -0.182995521016884
Mo         11.579718019169364        0.949502174857274       10.000007589386426        0.316997363863298        0.223296038406363        0.000000000000000
Se         11.563327970608254        2.799718777947598        8.303483541468298        0.317613143345433        0.705874319577158        0.264421108947912
Se         11.563327970608254        2.799718777947598       11.696527653981022        0.317613143345433        0.705874319577158       -0.264421108947912
Mo          9.939033528302232        3.812448247233866       10.000007589386426       -0.014676377619725        0.253092309139210        0.000000000000000
Se          9.946774453700099        5.736422724398206        8.264420415361052       -0.164255513035928       -0.132699321403200        0.767825077915563
Se          9.946774453700099        5.736422724398206       11.735598746735333       -0.164255513035928       -0.132699321403200       -0.767825077915563
Mo          8.290622717556850        6.683881454283384       10.000007589386426       -0.273454941049918        0.095380770791927        0.000000000000000
Se          8.311949431749053        8.671342141906321        8.316697553399614       -0.515825488107908       -0.723475071238556        0.141796916892082
Se          8.311949431749053        8.671342141906321       11.683318953147747       -0.515825488107908       -0.723475071238556       -0.141796916892082
Mo          6.618860336490322        9.568337473734667       10.000007589386426       -0.175002729049812       -0.215387578660644        0.000000000000000
Se          6.624454250504253       11.521278679626256        8.388068088903243       -0.069787998494750       -0.322376371189290       -0.719815104253923
Se          6.624454250504253       11.521278679626256       11.611948417644120       -0.069787998494750       -0.322376371189290        0.719815104253923
