# total energy = -38122.66429216868 eV 

 CRYSTAL
 PRIMVEC
       26.555490215667398        0.000000000000000        0.000000000000000
       -3.319436276958425        5.749422964633285        0.000000000000000
        0.000000000000000        0.000000000000000       20.000028456517960
 PRIMCOORD
48 1
Mo          1.578219339007329        0.911179946927044       10.000008917160937        0.391729595945296        0.226165133705381        0.000000000000000
Se          1.552930545674949        2.813054945133906        8.323204976276964        0.265584790758411        0.153328833941238        0.004683523610261
Se          1.552930545674949        2.813054945133906       11.676810202495886        0.265584790758411        0.153328833941238       -0.004683523610261
Mo         -0.081498799471883        3.785894084792709       10.000008917160937        0.391678430969536        0.226135566005821        0.000000000000000
Se         -0.106787592804263        5.687769082999570        8.323204976276964        0.265578877218499        0.153338861248045        0.004683523610261
Se         -0.106787592804263        5.687769082999570       11.676810202495886        0.265578877218499        0.153338861248045       -0.004683523610261
Mo          4.872271222868598        0.896521316327996       10.000008917160937        0.082284079659984        0.047498066793610        0.000000000000000
Se          4.879252661246297        2.817030302019192        8.339223247975054        0.031202664790166        0.018014956565665       -0.088333630989905
Se          4.879252661246297        2.817030302019192       11.660799897444862        0.031202664790166        0.018014956565665        0.088333630989905
Mo          3.212553084389385        3.771235454193661       10.000008917160937        0.082276623457486        0.047511179425589        0.000000000000000
Se          3.219534522767084        5.691747095433877        8.339223247975054        0.031210378103095        0.018019327442991       -0.088326431897838
Se          3.219534522767084        5.691747095433877       11.660799897444862        0.031210378103095        0.018019327442991        0.088326431897838
Mo          8.203962858561553        0.903598354470471       10.000008917160937        0.289335623928232        0.167047989426521        0.000000000000000
Se          8.240065047509752        2.840919621017206        8.351242262846666       -0.116380008129677       -0.067200439117627       -0.160393971473427
Se          8.240065047509752        2.840919621017206       11.648780882573250       -0.116380008129677       -0.067200439117627        0.160393971473427
Mo          6.544244720082340        3.778312492336136       10.000008917160937        0.289342565909868        0.167051846082986        0.000000000000000
Se          6.580346909030540        5.715633758882871        8.351242262846666       -0.116387464332175       -0.067187840706511       -0.160393971473427
Se          6.580346909030540        5.715633758882871       11.648780882573250       -0.116387464332175       -0.067187840706511        0.160393971473427
Mo         11.567680415454602        0.929160669352073       10.000008917160937        0.391318219255770        0.225932962986229        0.000000000000000
Se         11.616380528961114        2.873755484668878        8.353749101123025       -0.207987426236921       -0.120081627004124       -0.159669177168568
Se         11.616380528961114        2.873755484668878       11.646271388747870       -0.207987426236921       -0.120081627004124        0.159669177168568
Mo          9.907959621426368        3.803877462766759       10.000008917160937        0.391322847243527        0.225924992562869        0.000000000000000
Se          9.956662390481902        5.748472278083565        8.353749101123025       -0.208002595752348       -0.120090368758777       -0.159690260223906
Se          9.956662390481902        5.748472278083565       11.646271388747870       -0.208002595752348       -0.120090368758777        0.159690260223906
Mo         14.943082388042546        0.961478700944540       10.000008917160937        0.319826092824655        0.184651569302660        0.000000000000000
Se         14.982092403169363        2.900472963374862        8.345591254528772       -0.205318877074048       -0.118542821074864       -0.084475174752576
Se         14.982092403169363        2.900472963374862       11.654429235342123       -0.205318877074048       -0.118542821074864        0.084475174752576
Mo         13.283372216210401        3.836192838810204       10.000008917160937        0.319747931253645        0.184606574977243        0.000000000000000
Se         13.322371609141127        5.775187101240526        8.345591254528772       -0.205320419736634       -0.118539992860123       -0.084475174752576
Se         13.322371609141127        5.775187101240526       11.654429235342123       -0.205320419736634       -0.118539992860123        0.084475174752576
Mo         18.304505550580963        0.985715896864380       10.000008917160937        0.095652793627877        0.055248146513861        0.000000000000000
Se         18.315956277961956        2.908803420655517        8.330515702733337       -0.113488030002305       -0.065522279334789        0.029987818003908
Se         18.315956277961956        2.908803420655517       11.669499476039515       -0.113488030002305       -0.065522279334789       -0.029987818003908
Mo         16.644784756552731        3.860430034730044       10.000008917160937        0.095672591131060        0.055213693716113        0.000000000000000
Se         16.656235483933724        5.783520214070203        8.330515702733337       -0.113482373572824       -0.065519194009618        0.029967249169431
Se         16.656235483933724        5.783520214070203       11.669499476039515       -0.113482373572824       -0.065519194009618       -0.029967249169431
Mo         21.632659994977192        0.990748162260249       10.000008917160937       -0.191675826276327       -0.110663929028704        0.000000000000000
Se         21.611359836275206        2.894925521468809        8.315440150937903        0.026958542906406        0.015562123054363        0.130396640383574
Se         21.611359836275206        2.894925521468809       11.684580338932992        0.026958542906406        0.015562123054363       -0.130396640383574
Mo         19.972947167596022        3.865464955674935       10.000008917160937       -0.191721849043468       -0.110690668513524        0.000000000000000
Se         19.951636386697949        5.769642314883495        8.315440150937903        0.026956486022958        0.015565465489965        0.130396640383574
Se         19.951636386697949        5.769642314883495       11.684580338932992        0.026956486022958        0.015565465489965       -0.130396640383574
Mo         24.923551775502798        0.974270480581427       10.000008917160937       -0.489774030801909       -0.282824816485180        0.000000000000000
Se         24.879320950999578        2.865212583466499        8.307282304343650       -0.124834056209881       -0.072072938894640       -0.070811812230809
Se         24.879320950999578        2.865212583466499       11.692740841076267       -0.124834056209881       -0.072072938894640        0.070811812230809
Mo         23.263838948121624        3.848984618447091       10.000008917160937       -0.489820567789911       -0.282744340920291        0.000000000000000
Se         23.219610779167432        5.739926721332163        8.307282304343650       -0.124887792289951       -0.072104049256785       -0.070794585831936
Se         23.219610779167432        5.739926721332163       11.692740841076267       -0.124887792289951       -0.072104049256785        0.070794585831936
