# total energy = -9502.388753359623 eV 

 CRYSTAL
 PRIMVEC
        9.427081020035398        0.000000000000000        0.000000000000000
       -4.713540510017699        8.164087840376157        0.000000000000000
        0.000000000000000        0.000000000000000       19.999967175569981
 PRIMCOORD
12 1
Se          4.691330307134495        8.147551797558911        8.303269264555960       -0.080777669645024        0.014693089797737        1.892403991412003
Se         -0.036735449318874        8.139778226549790        8.278813530973784        0.070777873653924       -0.094167466668255        1.889147173583107
Se          7.051085175994288        4.060904633708750        8.297722370083770        0.061252960628796        0.011692611068502        1.885948976932468
Se          2.298914373372688        4.077668811886680        8.317769057872875       -0.064061634976539        0.066258643609042        1.829943897309878
Se          4.668110463874046        8.149027135738548       11.705828038981926        0.056450137778572        0.031132216532085       -1.902292715696932
Se         -0.045329176376738        8.155414925837723       11.678431998829600       -0.109160861449346        0.026775480279566       -1.866421953922362
Se          7.023239464077307        4.052079943165896       11.700355618449796       -0.046417945873171        0.048563275309053       -1.898869290308777
Se          2.328686980650164        4.057628723054288       11.682599711348557        0.064567628304657       -0.119759467634139       -1.830372500398279
Mo          2.316671223182027        1.348424215987109       10.034259511665736       -0.006101230526542        0.006206645803233        0.218469561396492
Mo          7.057225976570741        1.334306219451504        9.975358166744455        0.042026242602043        0.023827452078246       -0.060027572314868
Mo         -0.051147570782304        5.434308728982749        9.975932275978572        0.010165632219066       -0.014506684735296       -0.244362124456161
Mo          4.694152775191895        5.424363158506612       10.002000983123278        0.001279124393997       -0.000715538329345        0.086432556463430
