# total energy = -9516.2286008633 eV 

 CRYSTAL
 PRIMVEC
        5.709346257185899        0.000000000000000        0.000000000000000
       -2.854673128592950        4.944436592379419        0.000000000000000
        0.000000000000000        0.000000000000000       19.999925579116063
 PRIMCOORD
12 1
Se          2.835727804907730        4.923541526947369        8.393984206481965        0.342531514982217        0.319520131411820       -6.531273433356184
Se         -0.029548721554066        4.938908232398585        8.372555317174868       -0.067516170726839       -0.006233385288053       -5.864426420314421
Se          4.272291814625068        2.456324618078955        8.365734361201408       -0.161606247155376        0.160494244541500       -6.196120216411059
Se          1.410272470202998        2.469635958877584        8.413153907475092       -0.050234493110255       -0.641871048668445       -6.778858694174788
Se          2.823695357670711        4.933832052641321       11.584426272198519       -0.234629209092392       -0.216426047691268        6.628350104550686
Se         -0.013873140470336        4.923406786375701       11.597457855030546        0.377107468626502        0.078905134376385        6.203971597641107
Se          4.266576188086999        2.468074452676244       11.622348320973375       -0.159349331792461       -0.244365466891764        5.394973369533406
Se          1.398914867693578        2.456532438282717       11.583284402947081        0.255071288126264        0.346984153425482        6.577262519030525
Mo          1.408478022674364        0.802071799594504       10.023021697221553        0.156303601627378        0.116345555331930       -1.662969955687472
Mo          4.266052641035215        0.818264076514509        9.970532822406115       -0.544890536775121        0.138139778122190        0.943829509204372
Mo         -0.023947281941141        3.281994287623660        9.982131930262215       -0.369680319607529        0.312138490939126        0.401075560110480
Mo          2.840846804761922        3.283763043094136        9.980633797804328        0.456892177787181       -0.363631539608902        0.884186574094212
