# total energy = -9385.81147471118 eV 

 CRYSTAL
 PRIMVEC
        4.116046478171800        0.000000000000000        0.000000000000000
       -2.058023239085900        3.564599151258733        0.000000000000000
        0.000000000000000        0.000000000000000       19.999952158366341
 PRIMCOORD
12 1
Se          2.035713032360265        3.553635649859474        8.013530476748029        0.751038594988997        1.079639866822118      -12.519522180334684
Se         -0.009075882484369        3.558863440491400        8.058432016173757       -0.920458428141070        0.328669406097324      -11.623716528755223
Se          3.061721995997389        1.779275516281854        8.045361098977676        0.824762954181655       -0.399761725808304      -12.194532795835606
Se          1.010664342366499        1.778123434872613        8.017080566835453       -0.543064795604916       -0.989383049808676      -12.826575541170397
Se          2.043012017580007        3.556233286791849       11.966322615060749        0.182456617553604       -0.595108831928226       12.296905684797332
Se         -0.019191889913772        3.560524676849990       11.987645382236270       -0.050049887820830       -0.439964284123590       12.600963194891568
Se          3.075435839653362        1.767963385745894       11.970711555420424       -0.329545124225154        0.847241347828684       11.948767362647297
Se          1.013480129762216        1.779978537020325       11.982575236184458        0.252608170197723        0.203939993832841       12.257871950501164
Mo          1.006999826186983        0.582952369866290       10.019550349814763       -0.084439436402673        0.550618957176780       -0.040967204736943
Mo          3.067941753830554        0.579475545406178       10.026957998661530       -0.067996453011861       -0.087036765976172        0.371813307742725
Mo         -0.013985091118884        2.367184840921805        9.992458531895435        0.297589382982723       -0.302199373009731        0.113059169803473
Mo          2.048483066558793        2.364851454173329        9.982545445557408       -0.312901337587767       -0.196655026882186       -0.384066419550707
