# total energy = -38122.144540896865 eV 

 CRYSTAL
 PRIMVEC
       13.277745107833699        0.000000000000000        0.000000000000000
       -6.638872553916849       11.498859207011680        0.000000000000000
        0.000000000000000        0.000000000000000       20.000015178772852
 PRIMCOORD
48 1
Mo          1.634851577441262        0.943875066480574       10.006476506802963        0.018198533413367        0.089845954544777       -0.084807618539799
Se          1.631222769703290        2.880475351467954        8.349743205423991        0.035932725388430       -0.236740342840956       -0.177283041461944
Se          1.638704779071555        2.840357972399144       11.688728306504679       -0.035455271318148        0.220413316254505       -0.142553850000811
Mo         -0.024865233263440        3.818589204346238        9.998200488277250        0.127661499619084        0.072743225788137       -1.041329127057793
Se         -0.047132011809277        5.742004688441539        8.285164236543020        0.268977620005282       -0.041358526812855        0.464254277867122
Se         -0.002375388599791        5.728259566705910       11.624148009849199       -0.319729419302617        0.041170064866966        0.544263444434024
Mo         -1.684584699517163        6.693304669986414        9.990823373095338        0.033913122953285       -0.026833330126531       -1.148791517000256
Se         -1.714322865235178        8.600104383853770        8.243213200874820        0.347913350522950        0.131757525894615        0.827058436109213
Se         -1.654620812132315        8.619588147025006       11.582198301955508       -0.505659598778411       -0.205792988708728        1.036344270022453
Mo         -3.344301510221865        9.568020135626588        9.988028407750139       -0.010125265881406       -0.002788362623698       -0.674157948145945
Se         -3.366618744199112       11.463067717299003        8.244819808032867        0.159243659405339        0.222688743568449        0.809040651328808
Se         -3.321761210126806       11.506058400409145       11.583807564662578       -0.213539725993376       -0.306300541493881        0.981060642269120
Mo          4.954287854399686        0.943875066480574        9.990387863055799        0.053254769342674        0.110626905126647       -0.279687555006677
Se          4.947429899051490        2.837277535534128        8.280550220118048        0.100534549380403        0.229150700029620        0.455891246879476
Se          4.961368875865694        2.883557116107482       11.619537976747759       -0.132297200689188       -0.284282375518259        0.534341552903503
Mo          3.294569715920474        3.818589204346238        9.997511373306153       -0.015087754309252        0.008660764866691       -0.018884246932721
Se          3.308632175764180        5.720732413004279        8.344445385125965       -0.166378988085178        0.149347993138775       -0.154329507738512
Se          3.280731649969090        5.749530514368660       11.683427830657632        0.160920019415160       -0.140295649085741       -0.129134742388451
Mo          1.634851577441262        6.693304669986414       10.005877680498600        0.053799586345865       -0.016126737560738       -0.101632668031009
Se          1.662874258491345        8.611371878352280        8.401389650569932       -0.437719195840498       -0.078832629234855       -0.796839475827878
Se          1.607054618058011        8.608320652526498       11.740378734974152        0.325559141214071        0.047534319364374       -0.655679164362839
Mo         -0.024865233263440        9.568020135626588       10.011317572669277        0.172403599703296        0.067550366414156       -0.172641941072791
Se          0.003189314374902       11.501247873356579        8.422971297468205       -0.245635335310246       -0.243114881755603       -1.048306075712165
Se         -0.052698042558481       11.467867622155484       11.761957726323404        0.176538706764332        0.172660453023820       -0.855930137732349
Mo          8.273725459132622        0.943875066480574       10.011527361041981        0.081453355857571        0.099469597975391        0.538730427959891
Se          8.290616078684298        2.883650060323236        8.404762197827322       -0.301387932489640       -0.321822041100153       -0.814210884984865
Se          8.257056577924248        2.837183263543861       11.743748626682521        0.211812201007795        0.229217805852099       -0.666806903814535
Mo          6.614007320653410        3.818589204346238       10.006487128999050        0.021380789217286        0.058061963070224       -0.044606345776668
Se          6.610397101758589        5.755197455980682        8.349800299727955        0.020005762632543       -0.232731477001519       -0.208928193303783
Se          6.617839277891530        5.715065471392255       11.688788056357664       -0.018382881592361        0.220968931895797       -0.178963515238661
Mo          4.954287854399686        6.693304669986414        9.998208454924315       -0.006390993982228       -0.020627712765021        0.020809746950137
Se          4.932034353598956        8.616733431826821        8.285214691974430        0.266131921755481       -0.045724519040888        0.433657108141853
Se          4.976767076867248        8.602959099051956       11.624198465280609       -0.314761531555720        0.044619458408647        0.504471748587403
Mo          3.294569715920474        9.568020135626588        9.990828684193382        0.117769432898554        0.014492029440731        0.116950021955103
Se          3.264831550202459       11.474827816141010        8.243231789717971        0.175097088577972        0.109130265308063        0.823607757015378
Se          3.324532275530811       11.494287679371052       11.582218218573169       -0.239738250465882       -0.149681722478153        0.998318665726057
Mo         11.593157752767514        0.943875066480574        9.988065585436440        0.083884849203105        0.050172015275533       -0.761383176068006
Se         11.568848857024092        2.840088434173456        8.241569416030471        0.204448044044406        0.149230236561398        0.812059384898641
Se         11.617697681275812        2.880743561919132       11.580558500434689       -0.306129305946865       -0.238666099968803        0.999543025598260
Mo          9.933443597611834        3.818589204346238        9.990383879732269        0.091138705791615        0.100291322912721        0.056252419857168
Se          9.926567053420486        5.711989017850770        8.280502420235660        0.000239884032080        0.189472904103912        0.487255377020282
Se          9.940541880146482        5.758273909522168       11.619488849090859       -0.003702133095309       -0.221677528243507        0.557582278978312
Mo          8.273725459132622        6.693304669986414        9.997503406659089       -0.020308124499345        0.013700643534254       -0.001009929772788
Se          8.287770657907689        8.595435928673856        8.344388290822002       -0.251547589670037        0.102103951450948       -0.149412527856944
Se          8.259901998700856        8.624256602204920       11.683378703000734        0.247655966187115       -0.097860086677618       -0.120344136754129
Mo          6.614007320653410        9.568020135626588       10.005877680498600        0.046864032470877       -0.015699677134923       -0.098835820763089
Se          6.642022035056428       11.486068755149303        8.401352472883628       -0.252074151832631       -0.074887526782295       -0.799300279762540
Se          6.586214344593691       11.483048068137270       11.740338901738829        0.193317219267539        0.056763555393905       -0.675703181835980
