# total energy = -38121.840429871176 eV 

 CRYSTAL
 PRIMVEC
       13.277745107833699        0.000000000000000        0.000000000000000
       -6.638872553916849       11.498859207011680        0.000000000000000
        0.000000000000000        0.000000000000000       20.000015178772852
 PRIMCOORD
48 1
Mo          1.688521550941636        0.974861340238726       10.000007589386426       -1.368657702257691       -0.790194970960730        0.000000000000000
Se          1.609728755922729        2.845846992226723        8.266629832146995        0.149841388055776        0.086476779457554        0.475760483873183
Se          1.609728755922729        2.845846992226723       11.733388002174877        0.149841388055776        0.086476779457554       -0.475760483873183
Mo          0.028803412462424        3.849575478104390       10.000007589386426       -1.368638933196231       -0.790175173457546        0.000000000000000
Se         -0.049989382556483        5.720562457866898        8.266629832146995        0.149816962564835        0.086497862512892        0.475754827443702
Se         -0.049989382556483        5.720562457866898       11.733388002174877        0.149816962564835        0.086497862512892       -0.475754827443702
Mo         -1.630914726016789        6.724290943744566       10.000007589386426       -1.368637904754507       -0.790183400991337        0.000000000000000
Se         -1.709707521035695        8.595276595732564        8.266629832146995        0.149817733896128        0.086496319850306        0.475754827443702
Se         -1.709707521035695        8.595276595732564       11.733388002174877        0.149817733896128        0.086496319850306       -0.475754827443702
Mo         -3.290632864496001        9.599006409384740       10.000007589386426       -1.368631219883302       -0.790188543199956        0.000000000000000
Se         -3.369425659514908       11.469988078049205        8.266629832146995        0.149811820356216        0.086527944433314        0.475760483873183
Se         -3.369425659514908       11.469988078049205       11.733388002174877        0.149811820356216        0.086527944433314       -0.475760483873183
Mo          4.889715524391269        0.906593813766799       10.000007589386426        0.278915709492953        0.161016435826768        0.000000000000000
Se          4.921513068375510        2.841429486429347        8.384857530136168        0.230941217070785        0.133333869946795       -0.480977768738105
Se          4.921513068375510        2.841429486429347       11.615157648636682        0.230941217070785        0.133333869946795        0.480977768738105
Mo          3.229997385912057        3.781309279406974       10.000007589386426        0.278902082640112        0.161039832875984        0.000000000000000
Se          3.261794929896297        5.716143624295011        8.384857530136168        0.230941731291647        0.133342097480585       -0.480967227210436
Se          3.261794929896297        5.716143624295011       11.615157648636682        0.230941731291647        0.133342097480585        0.480967227210436
Mo          1.570279247432844        6.656023417272638       10.000007589386426        0.278945791413375        0.161024920470989        0.000000000000000
Se          1.602076791417085        8.590859089935186        8.384857530136168        0.230951244377592        0.133339783486707       -0.480974426302502
Se          1.602076791417085        8.590859089935186       11.615157648636682        0.230951244377592        0.133339783486707        0.480974426302502
Mo         -0.089438891046368        9.530738882912814       10.000007589386426        0.278924451247606        0.161061687262615        0.000000000000000
Se         -0.057641347062128       11.465578538898894        8.384857530136168        0.230948673273283        0.133330527511192       -0.480967227210436
Se         -0.057641347062128       11.465578538898894       11.615157648636682        0.230948673273283        0.133330527511192        0.480967227210436
Mo          8.295965682188243        0.956715973774360       10.000007589386426        0.096923947598514        0.055929746266321        0.000000000000000
Se          8.337732157199445        2.897307548941154        8.330514374958828       -0.527417311887476       -0.304507453348407        0.076787058646184
Se          8.337732157199445        2.897307548941154       11.669498148265003       -0.527417311887476       -0.304507453348407       -0.076787058646184
Mo          6.636247543709031        3.831430111640024       10.000007589386426        0.096918034058602        0.055955714419847        0.000000000000000
Se          6.678014018720233        5.772021686806818        8.330514374958828       -0.527419882991786       -0.304502825360649        0.076787058646184
Se          6.678014018720233        5.772021686806818       11.669498148265003       -0.527419882991786       -0.304502825360649       -0.076787058646184
Mo          4.976529405229818        6.706145577280200       10.000007589386426        0.096898493665850        0.055973712150014        0.000000000000000
Se          5.018295880241020        8.646735824672483        8.330514374958828       -0.527387744187917       -0.304516195103059        0.076795286179975
Se          5.018295880241020        8.646735824672483       11.669498148265003       -0.527387744187917       -0.304516195103059       -0.076795286179975
Mo          3.316812594525117        9.580861042920374       10.000007589386426        0.096888209248611        0.055938488020973        0.000000000000000
Se          3.358577741761808       11.521448634763637        8.330514374958828       -0.527412683899719       -0.304473000550659        0.076795286179975
Se          3.358577741761808       11.521448634763637       11.669498148265003       -0.527412683899719       -0.304473000550659       -0.076795286179975
Mo         11.631588858207627        0.966060850781253       10.000007589386426       -0.212519254692919       -0.122726779117781        0.000000000000000
Se         11.551048711932530        2.836037394141056        8.276171219781485        0.749296928929713        0.432607583362698        0.708986384233427
Se         11.551048711932530        2.836037394141056       11.723847942314899        0.749296928929713        0.432607583362698       -0.708986384233427
Mo          9.971870719728415        3.840776316421429       10.000007589386426       -0.212499714300167       -0.122695925866066        0.000000000000000
Se          9.891326590129784        5.710751532006721        8.276171219781485        0.749307727567813        0.432612982681748        0.708986641343858
Se          9.891326590129784        5.710751532006721       11.723847942314899        0.749307727567813        0.432612982681748       -0.708986641343858
Mo          8.312151253474692        6.715490454287092       10.000007589386426       -0.212507427613096       -0.122682299013226        0.000000000000000
Se          8.231608451650573        8.585465669872384        8.276171219781485        0.749297443150575        0.432606297810544        0.708986384233427
Se          8.231608451650573        8.585465669872384       11.723847942314899        0.749297443150575        0.432606297810544       -0.708986384233427
Mo          6.652433114995480        9.590205919927268       10.000007589386426       -0.212544194404722       -0.122683841675812        0.000000000000000
Se          6.571891640945871       11.460178479963538        8.276171219781485        0.749324439745825        0.432622752878125        0.708996411540234
Se          6.571891640945871       11.460178479963538       11.723847942314899        0.749324439745825        0.432622752878125       -0.708996411540234
