# total energy = -9517.48948811484 eV 

 CRYSTAL
 PRIMVEC
        6.904334320877699        0.000000000000000        0.000000000000000
       -3.452167160438850        5.979326130238110        0.000000000000000
        0.000000000000000        0.000000000000000       19.999950931310131
 PRIMCOORD
12 1
Se          3.423898744428880        5.965244740390679        7.791200897428464       -0.013195678647860       -0.005716336211404        4.024370369755117
Se         -0.020377452314638        5.965210218719075        7.796637370272723        0.015018077382464        0.006607480965091        4.031784920362973
Se          5.149189016634836        2.963268485443771        7.792125387794029        0.003330865633011       -0.008290268735686        4.019307094038336
Se          1.706166647003989        2.976832740650567        7.763228677360861       -0.000192575712785       -0.012201689721792        3.979064169385391
Se          3.424914372007481        5.957074841588784       12.204505939574625        0.037495442587769       -0.019336761291201       -4.002711129941106
Se         -0.025238103676536        5.969416339187354       12.202341430765030       -0.032304382986805       -0.048737081960378       -4.012508837133477
Se          5.141859375319792        2.974196665806856       12.213640373881146        0.032910649382995        0.043896978097666       -4.003320995883330
Se          1.697438877988967        2.973776882280147       12.224110796878756       -0.005753617223892        0.000116213914791       -4.025331705656454
Mo          1.707263055294144        0.969761395274087       10.029636485897557        0.001083206245610        0.018919213951331        0.016756658116576
Mo          5.153845990134267        0.973851522925775        9.984340600585439       -0.029440687006837        0.002303452350918       -0.067505114978308
Mo         -0.022891320440870        3.980885893196158       10.038126055378509       -0.015516871618515       -0.007631037590720        0.021203897240790
Mo          3.424529800585808        3.962583193344943       10.029559847786594        0.006565829075276        0.030069836231382        0.018890160472633
