# total energy = -9515.218893301806 eV 

 CRYSTAL
 PRIMVEC
        7.302698953924899        0.000000000000000        0.000000000000000
       -3.651349476962450        6.324319861572811        0.000000000000000
        0.000000000000000        0.000000000000000       20.000054981792154
 PRIMCOORD
12 1
Se          3.612528329323385        6.318336030049965        7.863807670208883        0.016224439524500       -0.097660568983198        3.960931713352779
Se         -0.041017799484405        6.319704555833931        7.797194641160866        0.035468898170988       -0.026946458716151        3.947845306638074
Se          5.455338850899995        3.138076359906257        7.825258913240798       -0.066726584593379        0.048267598313456        3.964943150296526
Se          1.786710457942663        3.155402013174443        7.863273112645454        0.086318913652948        0.029326015754632        3.952371992885453
Se          3.632249267848459        6.306824785688893       12.209377269177772       -0.000674400660393        0.063662085366836       -3.954290808031664
Se         -0.038674363390091        6.319972564885539       12.158570201745629        0.030789745438054       -0.028696352309225       -3.965743020847224
Se          5.445994317318553        3.152553230312517       12.184605053786267        0.073108579710523       -0.039163575063800       -3.954780603402632
Se          1.798805187950154        3.150621666439204       12.198655446573619       -0.050075598863925       -0.040633475397565       -3.950292226609465
Mo          1.806908992979324        1.026702511870000       10.039641711641538       -0.042655134716157        0.052144823612244        0.021228322731730
Mo          5.462312198131098        1.035076516760466       10.024445525388316       -0.040384078279539        0.020398370260610       -0.018828453969204
Mo         -0.020640348323373        4.208286161334055       10.029063752206778       -0.024157581871591       -0.015439738489228        0.005754902776047
Mo          3.626061691024799        4.194092635647207        9.964217976305610       -0.017237454622460        0.034741275651388       -0.009140532930851
