# total energy = -38121.42782619277 eV 

 CRYSTAL
 PRIMVEC
       13.277745107833699        0.000000000000000        0.000000000000000
       -6.638872553916849       11.498859207011680        0.000000000000000
        0.000000000000000        0.000000000000000       20.000015178772852
 PRIMCOORD
48 1
Mo          1.597695135531500        1.008233624792755       10.000007589386426        0.870828144543557       -1.645152717043210        0.000000000000000
Se          1.650812754835388        2.832964923923103        8.330514374958828       -0.347911293639502        0.670969264581252       -0.111074791497369
Se          1.650812754835388        2.832964923923103       11.669498148265003       -0.347911293639502        0.670969264581252        0.111074791497369
Mo         -0.062023002947713        3.882949090432930       10.000007589386426        0.870870053543803       -1.645082011674698        0.000000000000000
Se         -0.008905383643824        5.707680389563278        8.330514374958828       -0.347911036529071        0.670980577440214       -0.111075562828662
Se         -0.008905383643824        5.707680389563278       11.669498148265003       -0.347911036529071        0.670980577440214        0.111075562828662
Mo         -1.721741141426925        6.757663228298595       10.000007589386426        0.870845113832000       -1.645067613490564        0.000000000000000
Se         -1.668623522123036        8.582394527428942        8.330514374958828       -0.347913350522950        0.670969778802114       -0.111071706172198
Se         -1.668623522123036        8.582394527428942       11.669498148265003       -0.347913350522950        0.670969778802114        0.111071706172198
Mo         -3.381459279906137        9.632377366164258       10.000007589386426        0.870849741819757       -1.645077126576510        0.000000000000000
Se         -3.328341660602249       11.457108665294607        8.330514374958828       -0.347906922762176        0.671021972219597       -0.111059879092374
Se         -3.328341660602249       11.457108665294607       11.669498148265003       -0.347906922762176        0.671021972219597        0.111059879092374
Mo          4.991446951858469        0.879516508168393       10.000007589386426       -0.989255523034923        1.576632787193926        0.000000000000000
Se          4.938551070897882        2.887868399943995        8.330514374958828        0.407128710986434       -0.636801602301322       -0.111077362601679
Se          4.938551070897882        2.887868399943995       11.669498148265003        0.407128710986434       -0.636801602301322        0.111077362601679
Mo          3.331728813379257        3.754231973808569       10.000007589386426       -0.989267350114747        1.576712234317091        0.000000000000000
Se          3.278832932418669        5.762582537809659        8.330514374958828        0.407124340109108       -0.636796717203134       -0.111076848380817
Se          3.278832932418669        5.762582537809659       11.669498148265003        0.407124340109108       -0.636796717203134        0.111076848380817
Mo          1.672010674900045        6.628946111674233       10.000007589386426       -0.989275577648537        1.576717376525710        0.000000000000000
Se          1.619114793939457        8.637298003449835        8.330514374958828        0.407123825888246       -0.636797488534427       -0.111075819939093
Se          1.619114793939457        8.637298003449835       11.669498148265003        0.407123825888246       -0.636797488534427        0.111075819939093
Mo          0.012291208646322        9.503661577314407       10.000007589386426       -0.989266064562592        1.576685494832272        0.000000000000000
Se         -0.040603344539755       11.512008157991968        8.330514374958828        0.407123825888246       -0.636721383846864       -0.111047537791688
Se         -0.040603344539755       11.512008157991968       11.669498148265003        0.407123825888246       -0.636721383846864        0.111047537791688
Mo          8.236567689448350        1.008233624792755       10.000007589386426        0.870826087660109       -1.645153745484934        0.000000000000000
Se          8.289685308752237        2.832964923923103        8.330514374958828       -0.347910265197779        0.670969521691683       -0.111073763055645
Se          8.289685308752237        2.832964923923103       11.669498148265003       -0.347910265197779        0.670969521691683        0.111073763055645
Mo          6.576849550969137        3.882949090432930       10.000007589386426        0.870847684936310       -1.645097181190124        0.000000000000000
Se          6.629967170273025        5.707680389563278        8.330514374958828       -0.347912064970795        0.670976720783749       -0.111075819939093
Se          6.629967170273025        5.707680389563278       11.669498148265003       -0.347912064970795        0.670976720783749        0.111075819939093
Mo          4.917131412489924        6.757663228298595       10.000007589386426        0.870842542727690       -1.645067099269703        0.000000000000000
Se          4.970249031793813        8.582394527428942        8.330514374958828       -0.347913350522950        0.670970035912544       -0.111072220393060
Se          4.970249031793813        8.582394527428942       11.669498148265003       -0.347913350522950        0.670970035912544        0.111072220393060
Mo          3.257413274010712        9.632377366164258       10.000007589386426        0.870842799838122       -1.645072241478322        0.000000000000000
Se          3.310530893314600       11.457108665294607        8.330514374958828       -0.347911550749933        0.671023000661321       -0.111062707307114
Se          3.310530893314600       11.457108665294607       11.669498148265003       -0.347911550749933        0.671023000661321        0.111062707307114
Mo         11.630318178000808        0.879516508168393       10.000007589386426       -0.989227240887518        1.576632015862633        0.000000000000000
Se         11.577427608138263        2.887868399943995        8.330514374958828        0.407080374225414       -0.636799031197013       -0.111072477503491
Se         11.577427608138263        2.887868399943995       11.669498148265003        0.407080374225414       -0.636799031197013        0.111072477503491
Mo          9.970601367296107        3.754231973808569       10.000007589386426       -0.989235468421308        1.576698350353819        0.000000000000000
Se          9.917705486335519        5.762582537809659        8.330514374958828        0.407124082998677       -0.636799802528305       -0.111076591270386
Se          9.917705486335519        5.762582537809659       11.669498148265003        0.407124082998677       -0.636799802528305        0.111076591270386
Mo          8.310883228816893        6.628946111674233       10.000007589386426       -0.989266578783454        1.576717119415279        0.000000000000000
Se          8.257987347856306        8.637298003449835        8.330514374958828        0.407125368550831       -0.636799031197013       -0.111078905264265
Se          8.257987347856306        8.637298003449835       11.669498148265003        0.407125368550831       -0.636799031197013        0.111078905264265
Mo          6.651165090337681        9.503661577314407       10.000007589386426       -0.989270178329487        1.576684466390548        0.000000000000000
Se          6.598269209377094       11.512008157991968        8.330514374958828        0.407115084133593       -0.636720612515572       -0.111045223797810
Se          6.598269209377094       11.512008157991968       11.669498148265003        0.407115084133593       -0.636720612515572        0.111045223797810
