# total energy = -9514.847168623523 eV 

 CRYSTAL
 PRIMVEC
        8.630457589390799        0.000000000000000        0.000000000000000
       -4.315228794695400        7.474192033852167        0.000000000000000
        0.000000000000000        0.000000000000000       20.000041178044860
 PRIMCOORD
12 1
Se          4.284159147373593        7.469907874704793        8.688705410707357       -0.074412900926753        0.089740539268086       -0.317175284281518
Se         -0.023501599061670        7.442312849608475        8.687347839728545        0.097481105902392        0.030064694022763       -0.279119598064700
Se          6.431619811367375        3.720028423997304        8.729303946253610        0.016778255392776       -0.108147075020094       -0.374479800022151
Se          2.139829613393242        3.722985218767429        8.716151991933138       -0.046804125740465       -0.025057982600793       -0.469818918924263
Se          4.271477552991742        7.454358379265988       11.271703843041262        0.036467515084814       -0.095781091732923        0.325392276544382
Se         -0.048901035747247        7.462430446249345       11.302291047783822       -0.068195970706282       -0.016356080065149        0.332785744096900
Se          6.431404912973399        3.722362099729475       11.282833681148540       -0.021642013415136        0.084937459307431        0.378408704517561
Se          2.128330391701138        3.724875288979506       11.312029656127692        0.013862623105756        0.032886995223347        0.358579062530221
Mo          2.134879182919967        1.236332899732687       10.006328590474515        0.056048017064560        0.046967133753690        0.061671279299958
Mo          6.423464028945399        1.230333005616543        9.974975864143778       -0.047468499094050       -0.110573169046578       -0.292998676238036
Mo         -0.025364051809461        4.949996361257816       10.016526339162139        0.129511666280230        0.124316235801940        0.045326769204202
Mo          4.262867808500566        4.973713721759220       10.028653858166752       -0.091625672947842       -0.052997658911719        0.231428184227012
