# total energy = -9499.077686869085 eV 

 CRYSTAL
 PRIMVEC
        8.630457589390799        0.000000000000000        0.000000000000000
       -4.315228794695400        7.474192033852167        0.000000000000000
        0.000000000000000        0.000000000000000       20.000041178044860
 PRIMCOORD
12 1
Se          4.281621792842312        7.453618749050577        7.755787467124569        0.019231346014509        0.038384016237147        3.336027639133430
Se         -0.022845684284876        7.463859650026149        7.775890391987536       -0.031919231561235        0.047620194248313        3.351026176123141
Se          6.433030028137480        3.706032410924589        7.762902416361263       -0.027350122092749       -0.025388369504569        3.344126617708486
Se          2.111035817737758        3.718045144843262        7.729411925685631        0.031533051693942       -0.061665108649615        3.289932109740675
Se          4.274008866202710        7.453818975666651       12.257000896779822       -0.008064268666877       -0.031462089214999       -3.311289759019175
Se         -0.037921367602024        7.447781107537113       12.262602063755336       -0.006735521959706       -0.074992427838124       -3.319793943633415
Se          6.421446227961001        3.730442797170422       12.269723917358101        0.010127322764853        0.059453444722547       -3.329521459678135
Se          2.110385944281276        3.724111493482845       12.266667872325698       -0.013585200950756        0.050122135851928       -3.294713078204268
Mo          2.141307147732546        1.214315739376393        9.960462886661459        0.008318807993522       -0.044762668918689       -0.095954127052955
Mo          6.460547379115495        1.220876613235848        9.972452318344640       -0.022373749701631       -0.018044781375656       -0.104954791909367
Mo         -0.034185242511577        4.973172592068366       10.017560267981349       -0.006551173780712        0.038912378172758        0.092009795931687
Mo          4.304828230254425        4.952982499583745        9.997015463689804        0.047368740246840        0.021823019158527        0.043105077970327
