# total energy = -9505.404278237342 eV 

 CRYSTAL
 PRIMVEC
        6.572434350304899        0.000000000000000        0.000000000000000
       -3.286217175152450        5.691892458222800        0.000000000000000
        0.000000000000000        0.000000000000000       20.000068893967864
 PRIMCOORD
12 1
Se          3.253780239903390        5.671356229851837        8.845963611084585        0.322574860441986        0.336342095577858      -14.031772972955102
Se         -0.033919676438489        5.679552055486668        8.803501741721005        0.026241719024906       -0.245959551563680      -13.552478506208452
Se          4.907998870505370        2.823538171437471        8.792028243075677       -0.011181218421335        0.309008428552690      -13.307174072022846
Se          1.621485278563722        2.833572964203516        8.856454530794542       -0.617019525743709       -0.211765406909362      -14.525652028897623
Se          3.247483847795798        5.687850411097363       11.190941148443001        0.152267739192690       -0.241093222437010       13.367781942580377
Se         -0.034373831652095        5.680456422453269       11.187234295469429        0.258734083325637       -0.043210493247018       13.698835533703939
Se          4.894427450815425        2.836360990854915       11.168958984514969       -0.215418174801928        0.023142509890184       13.667123790260483
Se          1.620739964508397        2.840191405594273       11.142950547303943       -0.305581660728933       -0.091269575000970       14.294281694517576
Mo          1.628358073163835        0.930947862844892       10.021514476927599       -0.519064051096207       -0.562918348862334        0.222585642285637
Mo          4.890374230551592        0.938569914960941       10.007468527477561       -0.265021718914621       -0.068607347395808        0.063432228641563
Mo         -0.038747129468788        3.788019908824489       10.025278510080019       -0.327057837916103        0.299555249337798       -0.046208915092806
Mo          3.252618890753691        3.777211540535412        9.999013747929331        1.500525785637616        0.496775662057652        0.149245663187255
