# total energy = -38121.85030162147 eV 

 CRYSTAL
 PRIMVEC
       13.277745107833699        0.000000000000000        0.000000000000000
       -6.638872553916849       11.498859207011680        0.000000000000000
        0.000000000000000        0.000000000000000       20.000015178772852
 PRIMCOORD
48 1
Mo          1.629370524260748        0.940760107478276       10.000007589386426        1.003958383029036       -0.082525763465081        0.000000000000000
Se          1.611927550512587        2.820518365659019        8.330514374958828        0.208488020245989        0.394900281779823        0.066095121374955
Se          1.611927550512587        2.820518365659019       11.669498148265003        0.208488020245989        0.394900281779823       -0.066095121374955
Mo         -0.028596279638741        3.812128253576767       10.000007589386426       -0.191978188143130        0.047960094238035        0.000000000000000
Se         -0.039821285352904        5.705050068257417        8.269789935482660        0.212566048791353        0.258901205105757        0.878263778206751
Se         -0.039821285352904        5.705050068257417       11.730227898839214        0.212566048791353        0.258901205105757       -0.878263778206751
Mo         -1.684539555183796        6.686999068834703       10.000007589386426        0.519808128683388        0.478595383484884        0.000000000000000
Se         -1.683402980202566        8.605889497397254        8.241982353903323        0.082311333365665        0.052991231150946        1.160112089275168
Se         -1.683402980202566        8.605889497397254       11.758028841545995        0.082311333365665        0.052991231150946       -1.160112089275168
Mo         -3.340506730670046        9.565287575683397       10.000007589386426        0.953922893392340        0.728031325185494        0.000000000000000
Se         -3.327564912513441       11.508867971273963        8.262164526467231       -0.142602958093123       -0.284565711213171        0.839251898297215
Se         -3.327564912513441       11.508867971273963       11.737847996756599       -0.142602958093123       -0.284565711213171       -0.839251898297215
Mo          4.950558135798896        0.937412787936592       10.000007589386426        0.031253829765926        0.244559328156703        0.000000000000000
Se          4.939333130084734        2.830335930391751        8.269789935482660        0.137331165816839        0.298324204594390        0.901141207242622
Se          4.939333130084734        2.830335930391751       11.730227898839214        0.137331165816839        0.298324204594390       -0.901141207242622
Mo          3.294614860253840        3.812283603194528       10.000007589386426        0.023503750045675        0.119154486790104        0.000000000000000
Se          3.295750107460560        5.731174031757079        8.241982353903323        0.010605805276859        0.015984555492420        1.205863862021737
Se          3.295750107460560        5.731174031757079       11.758028841545995        0.010605805276859        0.015984555492420       -1.205863862021737
Mo          1.638646356993080        6.690573437817732       10.000007589386426        0.002336362486080        0.031868323695906        0.000000000000000
Se          1.651589502924197        8.634157816731832        8.262164526467231       -0.122369395618755       -0.205125015809109        0.951729484305870
Se          1.651589502924197        8.634157816731832       11.737847996756599       -0.122369395618755       -0.205125015809109       -0.951729484305870
Mo         -0.019377541210372        9.570342413245950       10.000007589386426       -0.055470547036637       -0.084930774436226        0.000000000000000
Se         -0.001584034991365       11.523968750785103        8.319395591205527       -0.222785159980057       -0.439721828987200        0.207292456742052
Se         -0.001584034991365       11.523968750785103       11.680618259792814       -0.222785159980057       -0.439721828987200       -0.207292456742052
Mo          8.273769275691476        0.937569465328864       10.000007589386426       -0.012607924202699        1.087936306208146        0.000000000000000
Se          8.274904522898197        2.856458566116904        8.241982353903323        0.024739679887271        0.109151091252970        1.175932608312639
Se          8.274904522898197        2.856458566116904       11.758028841545995        0.024739679887271        0.109151091252970       -1.175932608312639
Mo          6.617800772430718        3.815859299952068       10.000007589386426       -0.029169178391750        0.064575341617585        0.000000000000000
Se          6.630743918361834        5.759443678866168        8.262164526467231       -0.124082522420202       -0.207943717463659        0.947428541016869
Se          6.630743918361834        5.759443678866168       11.737847996756599       -0.124082522420202       -0.207943717463659       -0.947428541016869
Mo          4.959776874227265        6.695628275380284       10.000007589386426       -0.043961255705404       -0.072630354308948        0.000000000000000
Se          4.977570380446273        8.649247974046885        8.319395591205527       -0.224719144641694       -0.365686623283518        0.140695970026736
Se          4.977570380446273        8.649247974046885       11.680618259792814       -0.224719144641694       -0.365686623283518       -0.140695970026736
Mo          3.298778761119657        9.574138520572278       10.000007589386426       -0.071454845418626       -0.205244315049071        0.000000000000000
Se          3.311837423433211       11.517697671770673        8.382654752222779       -0.151102771830037       -0.343123640304705       -0.764410651392492
Se          3.311837423433211       11.517697671770673       11.617357771001052       -0.151102771830037       -0.343123640304705        0.764410651392492
Mo         11.596957843417377        0.941143834311893       10.000007589386426       -0.086698151538605        1.404367255792052        0.000000000000000
Se         11.609898333799471        2.884728213225992        8.262164526467231       -0.193544761998933       -0.197411188659622        0.847606701751070
Se         11.609898333799471        2.884728213225992       11.737847996756599       -0.193544761998933       -0.197411188659622       -0.847606701751070
Mo          9.938931289664902        3.820914137514620       10.000007589386426       -0.104000655100096       -0.042716841219586        0.000000000000000
Se          9.956724795883909        5.774533836181220        8.319395591205527       -0.244192174461301       -0.369087165843318        0.222575357868399
Se          9.956724795883909        5.774533836181220       11.680618259792814       -0.244192174461301       -0.369087165843318       -0.222575357868399
Mo          8.277933176557294        6.699424382706614       10.000007589386426       -0.097525071786085       -0.185785940524030        0.000000000000000
Se          8.290991838870848        8.642980878355987        8.382654752222779       -0.122379680035993       -0.276546951092572       -0.733372537278136
Se          8.290991838870848        8.642980878355987       11.617357771001052       -0.122379680035993       -0.276546951092572        0.733372537278136
Mo          6.614652619065650        9.574617847170671       10.000007589386426       -0.037810145755257       -0.222293307725642        0.000000000000000
Se          6.615959149184261       11.493468442497900        8.417649577228985       -0.030317433576391       -0.096501515160456       -1.421065806951232
Se          6.615959149184261       11.493468442497900       11.582368257092888       -0.030317433576391       -0.096501515160456        1.421065806951232
