# total energy = -38122.55628347064 eV 

 CRYSTAL
 PRIMVEC
       26.555490215667398        0.000000000000000        0.000000000000000
       -3.319436276958425        5.749422964633285        0.000000000000000
        0.000000000000000        0.000000000000000       20.000028456517960
 PRIMCOORD
48 1
Mo          1.716666387246711        0.901649181488641       10.000008917160937       -1.132560392604551        0.298962095573587        0.000000000000000
Se          1.701237647431408        2.814451763919251        8.330109403733037       -0.079976256431740        0.072422609080737        0.040952035221517
Se          1.701237647431408        2.814451763919251       11.669911086137857       -0.079976256431740        0.072422609080737       -0.040952035221517
Mo          0.047536983035066        3.792506401856410       10.000008917160937       -0.969642368030446       -0.181173893613574        0.000000000000000
Se          0.011724248930217        5.702589702088934        8.330274047772374        0.313812279844638       -0.108928947840626       -0.057075173236221
Se          0.011724248930217        5.702589702088934       11.669749097647541        0.313812279844638       -0.108928947840626        0.057075173236221
Mo          5.026691398472703        0.917792263990746       10.000008917160937       -1.055040055009285        0.158017756870549        0.000000000000000
Se          4.990878664367854        2.827872908674249        8.330274047772374        0.036815128387464        0.209673299332688        0.013976523026668
Se          4.990878664367854        2.827872908674249       11.669749097647541        0.036815128387464        0.209673299332688       -0.013976523026668
Mo          3.343779694839127        3.813612705479822       10.000008917160937       -0.151987488822950       -0.358842600721949        0.000000000000000
Se          3.294421005175266        5.722206242711248        8.330483836145078        0.555718485464325       -0.054401224754298       -0.154363446315398
Se          3.294421005175266        5.722206242711248       11.669531342627772        0.555718485464325       -0.054401224754298        0.154363446315398
Mo          8.322934110276764        0.938898567614158       10.000008917160937       -1.300767692964244        0.100740237725167        0.000000000000000
Se          8.273575420612904        2.847489449296562        8.330483836145078        0.071468215161035        0.228333603080048        0.002077195171679
Se          8.273575420612904        2.847489449296562       11.669531342627772        0.071468215161035        0.228333603080048       -0.002077195171679
Mo          6.630653629695100        3.835667040103934       10.000008917160937       -0.119353747374093       -0.404413624835558        0.000000000000000
Se          6.577168216851724        5.744281821727532        8.330701591164848        0.646530661008628       -0.076792457965234       -0.195455349611354
Se          6.577168216851724        5.744281821727532       11.669318898706047        0.646530661008628       -0.076792457965234        0.195455349611354
Mo         11.609810700681759        0.960952902238270       10.000008917160937       -1.300818600829573        0.051248022429076        0.000000000000000
Se         11.556319976740340        2.869567683861868        8.330701591164848        0.093001727974308        0.203240910571077       -0.012511250680660
Se         11.556319976740340        2.869567683861868       11.669318898706047        0.093001727974308        0.203240910571077        0.012511250680660
Mo          9.914362150117366        3.854470982725648       10.000008917160937       -0.099160294126953       -0.343930967057901        0.000000000000000
Se          9.866949977886314        5.764618016134690        8.330882168498313        0.609285901091039       -0.078390142183183       -0.191899769461689
Se          9.866949977886314        5.764618016134690       11.669140976921604        0.609285901091039       -0.078390142183183        0.191899769461689
Mo         14.893513910005982        0.979754189310962       10.000008917160937       -1.048248740086062       -0.012107844414493        0.000000000000000
Se         14.846101737774928        2.889901222720005        8.330882168498313        0.094515337081336        0.137979084102844       -0.024679516046428
Se         14.846101737774928        2.889901222720005       11.669140976921604        0.094515337081336        0.137979084102844        0.024679516046428
Mo         13.201700806052113        3.866444853263893       10.000008917160937       -0.062029691240708       -0.217671233508379        0.000000000000000
Se         13.169411985498883        5.779340379910257        8.330993701557219        0.449538562351461       -0.061996266884684       -0.146129998984952
Se         13.169411985498883        5.779340379910257       11.669018821666610        0.449538562351461       -0.061996266884684        0.146129998984952
Mo         18.180855221489750        0.991728059849207       10.000008917160937       -0.603316053994714       -0.070788415181593        0.000000000000000
Se         18.148566400936520        2.904626242044592        8.330993701557219        0.077868208008346        0.047970121544842       -0.032451707263741
Se         18.148566400936520        2.904626242044592       11.669018821666610        0.077868208008346        0.047970121544842        0.032451707263741
Mo         16.498785326896009        3.869310190658163       10.000008917160937       -0.008983695567969       -0.051456538988580        0.000000000000000
Se         16.487775420652596        5.785649964385500        8.331014945949393        0.203887543304926       -0.035681785607819       -0.079969828670966
Se         16.487775420652596        5.785649964385500       11.669000232823461        0.203887543304926       -0.035681785607819        0.079969828670966
Mo         21.477939742333646        0.994593397243477       10.000008917160937       -0.046739333911864       -0.115293459448465        0.000000000000000
Se         21.466929836090234        2.910933170970813        8.331014945949393        0.054504840257973       -0.053223401870097       -0.038946316749644
Se         21.466929836090234        2.910933170970813       11.669000232823461        0.054504840257973       -0.053223401870097        0.038946316749644
Mo         19.809856624436502        3.862519951810017       10.000008917160937        0.060101620118983        0.109068301694203        0.000000000000000
Se         19.822258038367217        5.782341150304627        8.330940590576787       -0.069443213406840       -0.019822185784842       -0.020444907248613
Se         19.822258038367217        5.782341150304627       11.669079899294108       -0.069443213406840       -0.019822185784842        0.020444907248613
Mo         24.789021662070226        0.987805813944353       10.000008917160937        0.581517460327127       -0.008161199299347        0.000000000000000
Se         24.801412453804854        2.907627012438962        8.330940590576787        0.409736067866740       -0.069743004169333        0.225533927597388
Se         24.801412453804854        2.907627012438962       11.669079899294108        0.409736067866740       -0.069743004169333       -0.225533927597388
Mo         23.136529272478697        3.847370044641979       10.000008917160937        0.135826812685326        0.268663945279518        0.000000000000000
Se         23.169989190150435        5.770048613883795        8.330783913184515        0.093337771307565        0.047929498096751        0.316444576436746
Se         23.169989190150435        5.770048613883795       11.669231265588335        0.093337771307565        0.047929498096751       -0.316444576436746
