# total energy = -9524.54523836681 eV 

 CRYSTAL
 PRIMVEC
        5.974940318459000        0.000000000000000        0.000000000000000
       -2.987470159229500        5.174447689293456        0.000000000000000
        0.000000000000000        0.000000000000000       20.000067101485772
 PRIMCOORD
12 1
Se          3.028497086926198        5.136027030563668        8.225392029502073       -0.735511696063675        0.280035682530189       -0.320046436463983
Se         -0.052423528860127        5.122202213654818        8.134283749550082        0.062218667407459        0.708149232670240        0.800258787449137
Se          4.490971876288803        2.622049979280929        8.294707312136516       -1.154877578011372       -0.210861920854989       -1.928215617787454
Se          1.457976256796836        2.599165957861231        8.346554259255910        1.169117896340199       -0.678610072368347       -2.484851730379854
Se          2.998211309439994        5.162028775841538       11.742388286984841       -1.842009575613695        0.701344290894176        2.564116048028282
Se         -0.046705510975362        5.181330223046288       11.894080669283911        0.508813315324495       -0.228685587260024       -1.009629982025454
Se          4.473299795308897        2.588439745001534       11.610917492699565        0.354578938445437       -1.147930968387852        3.835246878726871
Se          1.441022363643209        2.539338880452501       11.627064768910202       -0.216680844128344        1.352437119389654        5.885462681554229
Mo          1.405026335694653        0.892380041335062       10.092935507778478        2.957948550188352       -3.460400439230179       -4.014153829670722
Mo          4.446300832491876        0.874824471691366        9.895021584669841       -0.628937622660158       -2.128849685699087        1.638488414672878
Mo          0.002447933048473        3.389321940275842        9.981177834085893       -1.206292465110138        4.316712385952496        0.188968196327949
Mo          2.938130894561761        3.461695197365272       10.126966377856292        0.731632670991869        0.496659705253292       -5.155643410431880
