# total energy = -9506.397565353953 eV 

 CRYSTAL
 PRIMVEC
        9.427081020035398        0.000000000000000        0.000000000000000
       -4.713540510017699        8.164087840376157        0.000000000000000
        0.000000000000000        0.000000000000000       19.999967175569981
 PRIMCOORD
12 1
Se          4.694344144936601        8.140120429590818        8.632796652443703        0.047110087153300        0.024662289647554        1.103358304077639
Se         -0.048747435954603        8.136815294985194        8.652657626736714       -0.031980938064664        0.018444073874928        1.135139724447883
Se          7.030270181102050        4.069075084828815        8.667388383538622       -0.045727090145198        0.024746878979338        1.067545135039603
Se          2.294775884804893        4.076840171465019        8.648718049578441       -0.024221602368899       -0.009387873165429        1.129553486114542
Se          4.674887592419350        8.130767822510842       11.376767291604670       -0.019965653405314        0.034180774911908       -1.104303184911396
Se         -0.009644846591598        8.129275515585370       11.381541165433218        0.075507677141756       -0.052076175127180       -1.146094428579547
Se          7.024588479371276        4.049080245985320       11.373239677886973        0.000128555215477        0.001586371358987       -1.079119989530728
Se          2.320977513791979        4.051665151601014       11.397616223988582       -0.028948834752422       -0.050216752490519       -1.106517162832342
Mo          2.306325001762538        1.349570549039146       10.015640083943065       -0.089454632468865        0.015551838637124       -0.084478517188178
Mo          7.043914938170450        1.335527969151701       10.012649813843510        0.025331805209759       -0.017209172475055        0.120352107177488
Mo         -0.034835892493337        5.420476373002052       10.032553210001110        0.064518777322775       -0.017549843796069       -0.012310190323654
Mo          4.705421907843244        5.407999631272035       10.011483683921330        0.027701849162294        0.027267589644413       -0.023125026380879
