# total energy = -38122.89082391217 eV 

 CRYSTAL
 PRIMVEC
       13.277745107833699        0.000000000000000        0.000000000000000
       -6.638872553916849       11.498859207011680        0.000000000000000
        0.000000000000000        0.000000000000000       20.000015178772852
 PRIMCOORD
48 1
Mo          1.642151681701548        0.931233325363406       10.000007589386426       -0.005712479554940        0.014643981705425        0.000000000000000
Se          1.645359584919601        2.842410711792815        8.330514374958828       -0.042585200678938        0.071368199203394       -0.001018157306578
Se          1.645359584919601        2.842410711792815       11.669498148265003       -0.042585200678938        0.071368199203394        0.001018157306578
Mo         -0.017566456777664        3.805947463229070       10.000007589386426       -0.005709908450630        0.014677148951018        0.000000000000000
Se         -0.014358553559611        5.717126177432991        8.330514374958828       -0.042592399771004        0.071369998976411       -0.001017385975286
Se         -0.014358553559611        5.717126177432991       11.669498148265003       -0.042592399771004        0.071369998976411        0.001017385975286
Mo         -1.677284595256876        6.680662928869245       10.000007589386426       -0.005706823125459        0.014679977165759        0.000000000000000
Se         -1.674076692038824        8.591841643073167        8.330514374958828       -0.042583143795490        0.071372055859859       -0.001018414417009
Se         -1.674076692038824        8.591841643073167       11.669498148265003       -0.042583143795490        0.071372055859859        0.001018414417009
Mo         -3.337002733736089        9.555378394509420       10.000007589386426       -0.005728163291228        0.014703888435838        0.000000000000000
Se         -3.333794830518036       11.466558436487851        8.330514374958828       -0.042585200678938        0.071375398295461       -0.001000930907705
Se         -3.333794830518036       11.466558436487851       11.669498148265003       -0.042585200678938        0.071375398295461        0.001000930907705
Mo          4.946989077913910        0.956516807597742       10.000007589386426        0.009853757266318       -0.012310961654947        0.000000000000000
Se          4.944004240813669        2.878422612074282        8.330514374958828        0.040518289924497       -0.072574561345431       -0.001015843312700
Se          4.944004240813669        2.878422612074282       11.669498148265003        0.040518289924497       -0.072574561345431        0.001015843312700
Mo          3.287270939434698        3.831232273237918       10.000007589386426        0.009852728824594       -0.012288078826592        0.000000000000000
Se          3.284286102334457        5.753136749939947        8.330514374958828        0.040519061255790       -0.072571990241122       -0.001018928637871
Se          3.284286102334457        5.753136749939947       11.669498148265003        0.040519061255790       -0.072571990241122        0.001018928637871
Mo          1.627552800955485        6.705946411103582       10.000007589386426        0.009855814149766       -0.012263139114790        0.000000000000000
Se          1.624567963855244        8.627852215580122        8.330514374958828        0.040520603918376       -0.072573275793276       -0.001016871754424
Se          1.624567963855244        8.627852215580122       11.669498148265003        0.040520603918376       -0.072573275793276        0.001016871754424
Mo         -0.032164009749216        9.580661876743758       10.000007589386426        0.009843729959511       -0.012253883139275        0.000000000000000
Se         -0.035150174623968       11.502567681220297        8.330514374958828        0.040517261482773       -0.072559906050867       -0.001000416686843
Se         -0.035150174623968       11.502567681220297       11.669498148265003        0.040517261482773       -0.072559906050867        0.001000416686843
Mo          8.281024235618398        0.931233325363406       10.000007589386426       -0.005716336211404        0.014637811055082        0.000000000000000
Se          8.284232138836451        2.842410711792815        8.330514374958828       -0.042587771783247        0.071371027418135       -0.001016871754424
Se          8.284232138836451        2.842410711792815       11.669498148265003       -0.042587771783247        0.071371027418135        0.001016871754424
Mo          6.621306097139185        3.805947463229070       10.000007589386426       -0.005712736665371        0.014679462944897        0.000000000000000
Se          6.624514000357238        5.717126177432991        8.330514374958828       -0.042588543114540        0.071368456313825       -0.001016871754424
Se          6.624514000357238        5.717126177432991       11.669498148265003       -0.042588543114540        0.071368456313825        0.001016871754424
Mo          4.961587958659972        6.680662928869245       10.000007589386426       -0.005713507996663        0.014679720055328        0.000000000000000
Se          4.964795861878025        8.591841643073167        8.330514374958828       -0.042588286004109        0.071372312970290       -0.001017128864855
Se          4.964795861878025        8.591841643073167       11.669498148265003       -0.042588286004109        0.071372312970290        0.001017128864855
Mo          3.301869820180761        9.555378394509420       10.000007589386426       -0.005713507996663        0.014706202429716        0.000000000000000
Se          3.305077723398813       11.466558436487851        8.330514374958828       -0.042602169967381        0.071369998976411       -0.001012243766667
Se          3.305077723398813       11.466558436487851       11.669498148265003       -0.042602169967381        0.071369998976411        0.001012243766667
Mo         11.585857648507227        0.956516807597742       10.000007589386426        0.009932175947759       -0.012311732986240        0.000000000000000
Se         11.582878122505029        2.878422612074282        8.330514374958828        0.040502606188209       -0.072573790014138       -0.001016357533562
Se         11.582878122505029        2.878422612074282       11.669498148265003        0.040502606188209       -0.072573790014138        0.001016357533562
Mo          9.926143493351548        3.831232273237918       10.000007589386426        0.009855814149766       -0.012285250611852        0.000000000000000
Se          9.923158656251307        5.753136749939947        8.330514374958828        0.040517261482773       -0.072573275793276       -0.001018928637871
Se          9.923158656251307        5.753136749939947       11.669498148265003        0.040517261482773       -0.072573275793276        0.001018928637871
Mo          8.266425354872334        6.705946411103582       10.000007589386426        0.009852985935025       -0.012266481550392        0.000000000000000
Se          8.263440517772093        8.627852215580122        8.330514374958828        0.040521889470531       -0.072571990241122       -0.001013786429252
Se          8.263440517772093        8.627852215580122       11.669498148265003        0.040521889470531       -0.072571990241122        0.001013786429252
Mo          6.606707216393122        9.580661876743758       10.000007589386426        0.009850671941147       -0.012255425801861        0.000000000000000
Se          6.603722379292881       11.502567681220297        8.330514374958828        0.040503377519502       -0.072555535173541       -0.000989875159174
Se          6.603722379292881       11.502567681220297       11.669498148265003        0.040503377519502       -0.072555535173541        0.000989875159174
