# total energy = -9524.914051153593 eV 

 CRYSTAL
 PRIMVEC
        6.506022605555400        0.000000000000000        0.000000000000000
       -3.253011302777700        5.634378226976116        0.000000000000000
        0.000000000000000        0.000000000000000       19.999994935150113
 PRIMCOORD
12 1
Se          3.243330991742894        5.605517510697872        8.451887436776365       -0.881378928188192        1.993802431840413       -4.661410313425933
Se         -0.101804940527210        5.664028774398673        8.452073509022885        1.108730626532426       -0.494385049270641       -3.651705512265071
Se          4.792439046409275        2.856379441857142        8.367607118739480        2.209331935458944       -2.015626222330233       -3.161333442600763
Se          1.546501742010596        2.794686733102223        8.651089487515522        1.434377956624315       -0.491275041497819       -9.581920064099888
Se          3.276484381736283        5.566625808766383       11.357849276910445       -0.720442967926313       -0.500858061480343        6.086856510789332
Se         -0.026195849419008        5.592666164245118       11.346161857901826       -1.188094960138495       -0.953767341581612        7.265588537474200
Se          4.803354851136876        2.827450412341540       11.589996524919613        0.465477095076740        0.034451255085272        1.338515875105641
Se          1.645187695300703        2.752897899304481       11.479628357438973        0.540302915355606        1.574071710191192        4.303308704965993
Mo          1.584382408029182        0.955968937569888        9.993275445018996        0.253275885986911       -1.844553683327986       -0.824685306831507
Mo          4.814620679880656        0.885624519954102       10.063560007226810        1.845712222929866        2.898420800551259       -4.287393312179500
Mo          0.025242066505034        3.702988645450249        9.949444370725370       -4.526233475910058        1.013499236900883        2.029857284683546
Mo          3.276416068498925        3.758054319579149        9.814972040093405       -0.541058048691319       -1.213780035080385        5.144321295494382
