# total energy = -9521.5262190016 eV 

 CRYSTAL
 PRIMVEC
        7.833781241021299        0.000000000000000        0.000000000000000
       -3.916890620510650        6.784250399255471        0.000000000000000
        0.000000000000000        0.000000000000000       19.999996028483224
 PRIMCOORD
12 1
Se          3.867656872167079        6.816436272862330        8.612708994000403        0.084689347741560       -0.512337528001584       -1.580264214920723
Se         -0.044202110652463        6.700615383970079        8.527002726954887       -0.185104597882001        0.346871024835862       -1.178608870788441
Se          5.947544592733212        3.333182262814043        8.860593333810042       -0.678635012080150       -0.003239077209161       -2.763423169005760
Se          2.013812909310615        3.337890365339897        8.894185371149664       -0.418753702011595        0.996482897249044       -2.516417949319389
Se          3.949612324754395        6.746109285149187       11.355475615619278       -0.372234454628628       -0.065214518148937        1.283390884488207
Se          0.015909626322390        6.757094596583470       11.319166822945268       -0.353829718649636        0.332104401454871        1.303792082963558
Se          5.863555490535726        3.441389499718146       11.448265187662926       -0.023430216462422       -0.381259544975981        1.734871659035096
Se          1.943513339831814        3.337043533587742       11.495007793571853       -0.126935162651639        0.324741272933206        1.365893508014502
Mo          1.874389620917290        1.170229826236864        9.919895250917795        0.920202089041409       -1.640475878304154        0.437777559908325
Mo          5.829798943790041        1.046371477791324        9.832778903248894        0.019821928674411        0.021246577572328        0.805266270202401
Mo         -0.097857245128466        4.572438669078043        9.960161669874770        1.317561889203739       -0.281973009627429        0.654551735123105
Mo          3.961717866906145        4.441183664384730       10.080019306240519       -0.183352647405479        0.863053382221934        0.453170247188688
