# total energy = -38121.69612702115 eV 

 CRYSTAL
 PRIMVEC
       13.277745107833699        0.000000000000000        0.000000000000000
       -6.638872553916849       11.498859207011680        0.000000000000000
        0.000000000000000        0.000000000000000       20.000015178772852
 PRIMCOORD
48 1
Mo          1.705575486758138        0.944022449451271       10.000007589386426       -2.624102482674197       -0.039327868629180        0.000000000000000
Se          1.568059208450815        2.860495000629685        8.330430725164646        0.205343045454558        0.038574535066484       -0.030237986453226
Se          1.568059208450815        2.860495000629685       11.669588436931738        0.205343045454558        0.038574535066484        0.030237986453226
Mo         -0.060262373946414        3.879816870361992       10.000007589386426        0.046674799193695       -0.854251463728649        0.000000000000000
Se          0.008541573427869        5.793045668410563        8.330514374958828       -0.005849776525069       -0.372852548104642        0.001648334972847
Se          0.008541573427869        5.793045668410563       11.669498148265003       -0.005849776525069       -0.372852548104642       -0.001648334972847
Mo         -1.720037606729590        6.632152687117775       10.000007589386426        1.395071428160904        1.370656735858359        0.000000000000000
Se         -1.650743710560828        8.552065502053628        8.330598024753007       -0.169556873011772        0.429708663253690        0.015048673523747
Se         -1.650743710560828        8.552065502053628       11.669418481794358       -0.169556873011772        0.429708663253690       -0.015048673523747
Mo         -3.273578928679499        9.567722714136172       10.000007589386426       -1.090312263700594       -0.267359366952856        0.000000000000000
Se         -3.411093879212312       11.484217837481271        8.330430725164646        1.025386994786480       -0.058331414801864       -0.335609073739208
Se         -3.411093879212312       11.484217837481271       11.669588436931738        1.025386994786480       -0.058331414801864        0.335609073739208
Mo          4.918892041491223        1.005102732496328       10.000007589386426        0.525622423968985       -0.858384771016669        0.000000000000000
Se          4.987695988865506        2.918330202770387        8.330514374958828       -0.146737293822866       -0.323506371533333        0.028535401179448
Se          4.987695988865506        2.918330202770387       11.669498148265003       -0.146737293822866       -0.323506371533333       -0.028535401179448
Mo          3.259116808708047        3.757437221477600       10.000007589386426        0.520385855821742        0.962439676417696        0.000000000000000
Se          3.328410704876810        5.677351364187965        8.330598024753007       -0.184092611225765        0.259318238224765       -0.001986692299983
Se          3.328410704876810        5.677351364187965       11.669418481794358       -0.184092611225765        0.259318238224765        0.001986692299983
Mo          1.705575486758138        6.693007248495998       10.000007589386426       -1.068097922466154        0.065559817457709        0.000000000000000
Se          1.568060536225326        8.609505027390117        8.330430725164646        0.367013570217673        0.021943089729783       -0.022274247964852
Se          1.568060536225326        8.609505027390117       11.669588436931738        0.367013570217673        0.021943089729783        0.022274247964852
Mo         -0.059877319338287        9.629468212211131       10.000007589386426        0.414252469696881       -0.764859309094507        0.000000000000000
Se          0.008176435437404       11.542678421416552        8.330514374958828       -0.972352054862272       -0.286358799358645       -0.316529165768530
Se          0.008176435437404       11.542678421416552       11.669498148265003       -0.972352054862272       -0.286358799358645        0.316529165768530
Mo          8.238271224145684        0.882723083611935       10.000007589386426        1.663259462032726        0.914084146336854        0.000000000000000
Se          8.307566448088958        2.802635898547789        8.330598024753007       -0.081078231738809        0.293201536368059       -0.024170180282708
Se          8.307566448088958        2.802635898547789       11.669418481794358       -0.081078231738809        0.293201536368059        0.024170180282708
Mo          6.684729902195775        3.818293110630334       10.000007589386426       -1.090713355972882        0.020200652339207        0.000000000000000
Se          6.547214951662963        5.734789561749942        8.330430725164646        0.316043484164458        0.032785693713551       -0.001837311139598
Se          6.547214951662963        5.734789561749942       11.669588436931738        0.316043484164458        0.032785693713551        0.001837311139598
Mo          4.919277096099350        6.754752746570958       10.000007589386426        0.557289173087024       -0.887586602433149        0.000000000000000
Se          4.987332178649551        8.667968266874420        8.330514374958828       -0.172354234500553       -0.308406533033826       -0.018953152528217
Se          4.987332178649551        8.667968266874420       11.669498148265003       -0.172354234500553       -0.308406533033826        0.018953152528217
Mo          3.258731754099920        9.507091218875761       10.000007589386426        0.540500376166579        0.656687551473041        0.000000000000000
Se          3.328774515092765       11.426988100517486        8.330598024753007       -0.190220838347558        0.176427120837298        0.345844125774631
Se          3.328774515092765       11.426988100517486       11.669418481794358       -0.190220838347558        0.176427120837298       -0.345844125774631
Mo         11.663888300956943        0.943578972764669       10.000007589386426       -1.984274176379683        0.176682174384805        0.000000000000000
Se         11.526368039326089        2.860075423884278        8.330430725164646        0.435410344170530        0.330657383949461        0.162421030111070
Se         11.526368039326089        2.860075423884278       11.669588436931738        0.435410344170530        0.330657383949461       -0.162421030111070
Mo          9.898431511536987        3.880037280930782       10.000007589386426        0.373091660805429       -0.907088685731454        0.000000000000000
Se          9.966486594087188        5.793252801234245        8.330514374958828       -0.792322045556013       -0.651865445340496       -0.525399766335779
Se          9.966486594087188        5.793252801234245       11.669498148265003       -0.792322045556013       -0.651865445340496        0.525399766335779
Mo          8.237887497312068        6.632377081010097       10.000007589386426        0.555778392194737        0.764680103124132        0.000000000000000
Se          8.307928930530400        8.552276618200843        8.330598024753007        0.120320996815343        0.276998951230190        0.193006115646084
Se          8.307928930530400        8.552276618200843       11.669418481794358        0.120320996815343        0.276998951230190       -0.193006115646084
Mo          6.684727246646753        9.567279237449572       10.000007589386426       -0.834334147084354        0.045065545006353        0.000000000000000
Se          6.547218934986495       11.483798260735863        8.330432052939157        1.294999677556219       -0.056892624830244       -0.176315277799833
Se          6.547218934986495       11.483798260735863       11.669588436931738        1.294999677556219       -0.056892624830244        0.176315277799833
