# total energy = -38121.95609748877 eV 

 CRYSTAL
 PRIMVEC
       13.277745107833699        0.000000000000000        0.000000000000000
       -6.638872553916849       11.498859207011680        0.000000000000000
        0.000000000000000        0.000000000000000       20.000015178772852
 PRIMCOORD
48 1
Mo          1.631983584497969        0.942219331665627       10.000007589386426       -0.116501107142657       -0.067261888510625        0.000000000000000
Se          1.606722674430316        2.844111590941129        8.330514374958828        0.311090508822557        0.179598578003118        0.049646995775525
Se          1.606722674430316        2.844111590941129       11.669498148265003        0.311090508822557        0.179598578003118       -0.049646995775525
Mo         -0.027734553981243        3.816933469531292       10.000007589386426       -0.116450456387759       -0.067240805455287        0.000000000000000
Se         -0.052995464048897        5.718827056581305        8.330514374958828        0.311089480380833        0.179600891996996        0.049638768241734
Se         -0.052995464048897        5.718827056581305       11.669498148265003        0.311089480380833        0.179600891996996       -0.049638768241734
Mo         -1.687452692460455        6.691648935171466       10.000007589386426       -0.116466140124047       -0.067241833897011        0.000000000000000
Se         -1.712713602528109        8.593541194446969        8.330514374958828        0.311083823951352        0.179610919303803        0.049638768241734
Se         -1.712713602528109        8.593541194446969       11.669498148265003        0.311083823951352        0.179610919303803       -0.049638768241734
Mo         -3.347170830939668        9.566364400811642       10.000007589386426       -0.116457655479826       -0.067228721265032        0.000000000000000
Se         -3.372431741007321       11.468257987861655        8.330514374958828        0.311082281288766        0.179613233297682        0.049646995775525
Se         -3.372431741007321       11.468257987861655       11.669498148265003        0.311082281288766        0.179613233297682       -0.049646995775525
Mo          4.953063646300744        0.943167362666327       10.000007589386426        0.070573470861315        0.040722692717106        0.000000000000000
Se          4.939175124917950        2.851626794672163        8.254051824206345        0.118477257914971        0.068402944603200        1.076713435896997
Se          4.939175124917950        2.851626794672163       11.745968665664551        0.118477257914971        0.068402944603200       -1.076713435896997
Mo          3.293345507821531        3.817882828306502       10.000007589386426        0.070553416247701        0.040757145514854        0.000000000000000
Se          3.279456986438737        5.726340932537827        8.254051824206345        0.118503740289359        0.068396002621564        1.076721406320357
Se          3.279456986438737        5.726340932537827       11.745968665664551        0.118503740289359        0.068396002621564       -1.076721406320357
Mo          1.633627369342319        6.692598293946676       10.000007589386426        0.070571413977867        0.040742233109858        0.000000000000000
Se          1.619738847959525        8.601056398178002        8.254051824206345        0.118481885902728        0.068405515707509        1.076712407455273
Se          1.619738847959525        8.601056398178002       11.745968665664551        0.118481885902728        0.068405515707509       -1.076712407455273
Mo         -0.026090769136893        9.567312431812342       10.000007589386426        0.070569357094420        0.040745575545461        0.000000000000000
Se         -0.039979290519687       11.475767880494645        8.254051824206345        0.118484714117468        0.068429426977588        1.076721406320357
Se         -0.039979290519687       11.475767880494645       11.745968665664551        0.118484714117468        0.068429426977588       -1.076721406320357
Mo          8.275152816731714        0.944699614451771       10.000007589386426        0.024926599170575        0.014352932697585        0.000000000000000
Se          8.284180355630530        2.866387663908541        8.240626696127814       -0.076708639964743       -0.044291642609181        1.241753135747335
Se          8.284180355630530        2.866387663908541       11.759388482645038       -0.076708639964743       -0.044291642609181       -1.241753135747335
Mo          6.615434678252501        3.819415080091946       10.000007589386426        0.024933026931349        0.014395098808262        0.000000000000000
Se          6.624462217151318        5.741103129548716        8.240626696127814       -0.076711982400346       -0.044285729069269        1.241753135747335
Se          6.624462217151318        5.741103129548716       11.759388482645038       -0.076711982400346       -0.044285729069269       -1.241753135747335
Mo          4.955717867547800        6.694129217957610       10.000007589386426        0.024893431924982        0.014410525434119        0.000000000000000
Se          4.964744078672105        8.615818595188891        8.240626696127814       -0.076676758271305       -0.044304241020297        1.241761620391557
Se          4.964744078672105        8.615818595188891       11.759388482645038       -0.076676758271305       -0.044304241020297       -1.241761620391557
Mo          3.295999729068587        9.568843355823274       10.000007589386426        0.024914000759458        0.014384043059731        0.000000000000000
Se          3.305025940192893       11.490528749731023        8.240626696127814       -0.076706840191726       -0.044251790492383        1.241761620391557
Se          3.305025940192893       11.490528749731023       11.759388482645038       -0.076706840191726       -0.044251790492383       -1.241761620391557
Mo         11.596068234495151        0.945552045687693       10.000007589386426       -0.061504157519838       -0.035524434024075        0.000000000000000
Se         11.620658618434859        2.876226473033447        8.301307319045124       -0.311639182482213       -0.179930764679910        0.440075870050624
Se         11.620658618434859        2.876226473033447       11.698707859727726       -0.311639182482213       -0.179930764679910       -0.440075870050624
Mo          9.936347440466916        3.820266183553358       10.000007589386426       -0.061477675145450       -0.035497951649686        0.000000000000000
Se          9.960939152181135        5.750941938673622        8.301307319045124       -0.311640725144799       -0.179925879581722        0.440077412713210
Se          9.960939152181135        5.750941938673622       11.698707859727726       -0.311640725144799       -0.179925879581722       -0.440077412713210
Mo          8.276629301987704        6.694981649193532       10.000007589386426       -0.061481017581052       -0.035492295220205        0.000000000000000
Se          8.301221013701923        8.625656076539286        8.301307319045124       -0.311644067580401       -0.179922022925258        0.440075870050624
Se          8.301221013701923        8.625656076539286       11.698707859727726       -0.311644067580401       -0.179922022925258       -0.440075870050624
Mo          6.616911163508493        9.569697114833708       10.000007589386426       -0.061517270151817       -0.035502065416582        0.000000000000000
Se          6.641502875222711       11.500367558855929        8.301307319045124       -0.311604986794896       -0.179905310747246        0.440089239793034
Se          6.641502875222711       11.500367558855929       11.698707859727726       -0.311604986794896       -0.179905310747246       -0.440089239793034
