# total energy = -9279.458215697823 eV 

 CRYSTAL
 PRIMVEC
        3.850505334623600        0.000000000000000        0.000000000000000
       -1.925252667311800        3.334633882417403        0.000000000000000
        0.000000000000000        0.000000000000000       20.000006021201802
 PRIMCOORD
12 1
Se          1.904190788181942        3.324632194810718        8.244979643930678        0.502921115578319        0.821292477584636      -26.254589715968681
Se         -0.017214069148968        3.329229698180259        8.203744967352728       -0.348962103970812       -0.363882479389513      -26.188345470543776
Se          2.870802394859177        1.655877089859535        8.231182513215655        0.758251571018985        0.220449311714839      -25.887001761048257
Se          0.947687528109161        1.665166819029848        8.224502271510616       -0.939178895729273       -0.667945645913231      -26.481710014925060
Se          1.914988760291827        3.323522094122746       11.790620063533853       -0.437287250316495        0.748196753395660       25.275279224403068
Se         -0.013572261203481        3.329883899036611       11.792425565485258        0.002189552430006       -0.569232209715276       26.035104054149063
Se          2.863187250458892        1.663784872665251       11.791444841776530        1.291861130525561       -0.355652631605101       25.838102699516377
Se          0.947657494167551        1.657583633823840       11.733578677506740       -0.803786085451398        0.103036490984018       25.015329008739016
Mo          0.950139144855716        0.548632321694241        9.981409690441071       -0.929580706231324       -1.044425765088205        0.418269820180540
Mo          2.868797436731439        0.548003919223631       10.016083876029890        0.666962712735693       -0.014995451664540        1.390830648712747
Mo         -0.019788517015698        2.216735151041739       10.007610839041051       -0.778246020792566        0.189724100994954       -0.144357222563524
Mo          1.904901591466714        2.214029785993633        9.980470552189956        1.014854723092874        0.933435048701758        0.983088472238056
