# total energy = -38119.965658965186 eV 

 CRYSTAL
 PRIMVEC
       13.277745107833699        0.000000000000000        0.000000000000000
       -6.638872553916849       11.498859207011680        0.000000000000000
        0.000000000000000        0.000000000000000       20.000015178772852
 PRIMCOORD
48 1
Mo          1.634851577441262        0.943875066480574        9.925693377792392        0.002739511641817        0.001581743371230        3.082079152259143
Se          1.634964438274678        2.860416661933549        8.375661363874482       -0.001550890119516       -0.000939995735568       -1.770185262505788
Se          1.634964438274678        2.860416661933549       11.714647792729682       -0.001163938920929       -0.000702939918229       -1.311912658814814
Mo         -0.024865233263440        3.818589204346238        9.925693377792392        0.002732569660181        0.001596655776225        3.082102549308360
Se         -0.024753700204534        5.735132127573724        8.375661363874482       -0.001580457819075       -0.000915570244628       -1.770197346696043
Se         -0.024753700204534        5.735132127573724       11.714647792729682       -0.001184250644975       -0.000686741961079       -1.311906231054041
Mo         -1.684584699517163        6.693304669986414        9.925693377792392        0.002778078206460        0.001603854868292        3.082105377523100
Se         -1.684471838683747        8.609846265439389        8.375661363874482       -0.001583286033816       -0.000910942256871       -1.770197346696043
Se         -1.684471838683747        8.609846265439389       11.714647792729682       -0.001186821749284       -0.000682371083752       -1.311906231054041
Mo         -3.344301510221865        9.568020135626588        9.925693377792392        0.002749024727762        0.001568116518389        3.082102549308360
Se         -3.344189977162959       11.484557747756032        8.375661363874482       -0.001589456684159       -0.000873147023520       -1.770185262505788
Se         -3.344189977162959       11.484557747756032       11.714647792729682       -0.001190678405749       -0.000656402930226       -1.311912658814814
Mo          4.954287854399686        0.943875066480574        9.925693377792392        0.002773707329133        0.001559374763737        3.082093036222414
Se          4.954400715233103        2.860416661933549        8.375661363874482       -0.001592284898899       -0.000919426901092       -1.770197860916905
Se          4.954400715233103        2.860416661933549       11.714647792729682       -0.001192221068334       -0.000688284623664       -1.311905716833178
Mo          3.294569715920474        3.818589204346238        9.925693377792392        0.002737454758369        0.001622366819321        3.082093036222414
Se          3.294682576753890        5.735132127573724        8.375661363874482       -0.001550633009085       -0.000936910410397       -1.770182434291048
Se          3.294682576753890        5.735132127573724       11.714647792729682       -0.001162910479206       -0.000700368813919       -1.311914201477400
Mo          1.634851577441262        6.693304669986414        9.925693377792392        0.002755195378105        0.001604626199585        3.082107948627410
Se          1.634964438274678        8.609846265439389        8.375661363874482       -0.001581486260799       -0.000912999140318       -1.770197603806474
Se          1.634964438274678        8.609846265439389       11.714647792729682       -0.001185021976268       -0.000684170856769       -1.311904174170593
Mo         -0.024865233263440        9.568020135626588        9.925693377792392        0.002767279568360        0.001583543144247        3.082107948627410
Se         -0.024753700204534       11.484557747756032        8.375661363874482       -0.001586628469418       -0.000874432575675       -1.770182434291048
Se         -0.024753700204534       11.484557747756032       11.714647792729682       -0.001188107301439       -0.000656917151088       -1.311914201477400
Mo          8.273725459132622        0.943875066480574        9.925693377792392        0.002769593562238        0.001555518107273        3.082090722228536
Se          8.273836992191526        2.860416661933549        8.375661363874482       -0.001589713794590       -0.000921226674109       -1.770197603806474
Se          8.273836992191526        2.860416661933549       11.714647792729682       -0.001190935516180       -0.000689313065388       -1.311905459722748
Mo          6.614007320653410        3.818589204346238        9.925693377792392        0.002772678887410        0.001600769543121        3.082102549308360
Se          6.614118853712315        5.735132127573724        8.375661363874482       -0.001592542009330       -0.000916084465490       -1.770197603806474
Se          6.614118853712315        5.735132127573724       11.714647792729682       -0.001192221068334       -0.000686741961079       -1.311905459722748
Mo          4.954287854399686        6.693304669986414        9.925693377792392        0.002731798328888        0.001620824156735        3.082090722228536
Se          4.954400715233103        8.609846265439389        8.375661363874482       -0.001559374763737       -0.000935367747811       -1.770188090720529
Se          4.954400715233103        8.609846265439389       11.714647792729682       -0.001167538466963       -0.000699854593057       -1.311910859041798
Mo          3.294569715920474        9.568020135626588        9.925693377792392        0.002759309145000        0.001593056230192        3.082112062394305
Se          3.294682576753890       11.484557747756032        8.375661363874482       -0.001589713794590       -0.000882660109466       -1.770188090720529
Se          3.294682576753890       11.484557747756032       11.714647792729682       -0.001189649964025       -0.000661288028414       -1.311910859041798
Mo         11.593157752767514        0.943875066480574        9.925693377792392        0.002780906421200        0.001565288303649        3.082094578885000
Se         11.593267958051909        2.860416661933549        8.375661363874482       -0.001551918561239       -0.000922769336694       -1.770195804033457
Se         11.593267958051909        2.860416661933549       11.714647792729682       -0.001167024246101       -0.000690598617543       -1.311905202612317
Mo          9.933443597611834        3.818589204346238        9.925693377792392        0.002754166936381        0.001613367954237        3.082108977069133
Se          9.933555130670738        5.735132127573724        8.375661363874482       -0.001587399800711       -0.000916598686352       -1.770197860916905
Se          9.933555130670738        5.735132127573724       11.714647792729682       -0.001189135743163       -0.000686484850648       -1.311905202612317
Mo          8.273725459132622        6.693304669986414        9.925693377792392        0.002774221549995        0.001578400935628        3.082108977069133
Se          8.273836992191526        8.609846265439389        8.375661363874482       -0.001575058500025       -0.000882660109466       -1.770195804033457
Se          8.273836992191526        8.609846265439389       11.714647792729682       -0.001181422430234       -0.000665401795309       -1.311905202612317
Mo          6.614007320653410        9.568020135626588        9.925693377792392        0.002746196513021        0.001625709254923        3.082094578885000
Se          6.614118853712315       11.484557747756032        8.375661363874482       -0.001560660315892       -0.000900914950063       -1.770160065683555
Se          6.614118853712315       11.484557747756032       11.714647792729682       -0.001168824019118       -0.000674657770824       -1.311924228784207
