# total energy = -9529.507386250181 eV 

 CRYSTAL
 PRIMVEC
        6.904334320877699        0.000000000000000        0.000000000000000
       -3.452167160438850        5.979326130238110        0.000000000000000
        0.000000000000000        0.000000000000000       19.999950931310131
 PRIMCOORD
12 1
Se          3.419952226931066        5.959162712287418        8.228506243777352       -0.019208463186154        0.091936262348434        1.566538631674666
Se         -0.022368662332780        5.968368951670877        8.270777340223493       -0.026527625824127        0.069079145036609        1.185499173227582
Se          5.146135919998144        2.986069359105038        8.282427713956542       -0.011950492830749       -0.183988738611660        1.096216033416163
Se          1.681510578710703        2.986279941301825        8.253205118943427        0.074955918156929       -0.053379982122548        1.238699178048462
Se          3.421054849122110        5.952939835764011       11.743599507216681        0.076739493216458        0.056732702142191       -1.772757395257053
Se         -0.019026274088043        5.963372284922857       11.735537316030193       -0.158124714809826        0.010653370706586       -1.643782832667086
Se          5.139608562331186        2.980072254313924       11.756865495180815        0.029403920215211       -0.001107117515689       -1.833400489943626
Se          1.688274064611434        2.985039922857795       11.702470387667212        0.026538681572658       -0.041774274379708       -1.551143887510855
Mo          1.695498760044801        0.986078408574617        9.966616483950313       -0.074763342444144       -0.096731886106591        0.409718327247004
Mo          5.146224985910883        0.973368909956746       10.005357394258191        0.142715572461881        0.127738632748370        0.051493048669776
Mo         -0.041181592490307        3.980925247901787        9.960661495598556        0.066793690415858       -0.031709943670439        0.688583643095490
Mo          3.426355306580248        3.975907868150804        9.960399130894363       -0.126572379833562        0.052551315203583        0.564336827109908
