# total energy = -38122.72850943087 eV 

 CRYSTAL
 PRIMVEC
       53.110927513609894        0.000000000000000        0.000000000000000
       -1.659716484800309        2.874735173529163        0.000000000000000
        0.000000000000000        0.000000000000000       19.999981973800079
 PRIMCOORD
48 1
Mo          1.585679851846337        0.860811290955087        9.999996297992791        1.099106983101812        0.964654168559505        0.000000000000000
Se          1.590581990455843        2.777797108631322        8.334867809678844        0.165098321028596        0.103759485515861       -0.078938558732409
Se          1.590581990455843        2.777797108631322       11.665130097399487        0.165098321028596        0.103759485515861        0.078938558732409
Mo          4.903816914815623        0.866807514671373        9.999996297992791        0.181144325914014        0.038993367958508        0.000000000000000
Se          4.917105268879529        2.785854036335137        8.338070398607915       -0.096311510551981        0.004813364377893       -0.092539957640315
Se          4.917105268879529        2.785854036335137       11.661927508470416       -0.096311510551981        0.004813364377893        0.092539957640315
Mo          8.225119389064721        0.877647454976901        9.999996297992791        0.267597965432782       -0.001136685215248        0.000000000000000
Se          8.245970739206564        2.798595347845652        8.340800300282114       -0.143396915103910        0.002304737903073       -0.127800339251799
Se          8.245970739206564        2.798595347845652       11.659197606796218       -0.143396915103910        0.002304737903073        0.127800339251799
Mo         11.549481052738603        0.892645980906744        9.999996297992791        0.351047012455419        0.008297467827753        0.000000000000000
Se         11.576578247956045        2.815219068157412        8.342882248640649       -0.187076634887419       -0.003313125013275       -0.150765700055056
Se         11.576578247956045        2.815219068157412       11.657120969530435       -0.187076634887419       -0.003313125013275        0.150765700055056
Mo         14.876577929179435        0.910863029043912        9.999996297992791        0.422736342587075        0.014652980570509        0.000000000000000
Se         14.908247975255801        2.834684223091150        8.344183466364731       -0.218850341944735       -0.008248359735440       -0.163799399131415
Se         14.908247975255801        2.834684223091150       11.655819751806353       -0.218850341944735       -0.008248359735440        0.163799399131415
Mo         18.205947953317850        0.931156714446863        9.999996297992791        0.468317394007491        0.019699801219708        0.000000000000000
Se         18.240188568285873        2.855763950221301        8.344624287063095       -0.236123277806666       -0.012385266569493       -0.166178184838603
Se         18.240188568285873        2.855763950221301       11.655368308922485       -0.236123277806666       -0.012385266569493        0.166178184838603
Mo         21.536948482930931        0.952247063762517        9.999996297992791        0.477110056525261        0.025695359359128        0.000000000000000
Se         21.571624607504567        2.877135787452778        8.344183466364731       -0.238668928183543       -0.015704562233111       -0.157582983131806
Se         21.571624607504567        2.877135787452778       11.655819751806353       -0.238668928183543       -0.015704562233111        0.157582983131806
Mo         24.868867831589998        0.972811614895787        9.999996297992791        0.461801958576682        0.031468002754911        0.000000000000000
Se         24.901796606648439        2.897456028319485        8.342882248640649       -0.225561952634362       -0.017910312620267       -0.139016267581313
Se         24.901796606648439        2.897456028319485       11.657120969530435       -0.225561952634362       -0.017910312620267        0.139016267581313
Mo         28.200904024289599        0.991559772308091        9.999996297992791        0.415513853471142        0.032915277370752        0.000000000000000
Se         28.230035368030812        2.915455321653847        8.340800300282114       -0.198335757769333       -0.019010488154320       -0.111310047541692
Se         28.230035368030812        2.915455321653847       11.659197606796218       -0.198335757769333       -0.019010488154320        0.111310047541692
Mo         31.532286952580776        1.007312473408628        9.999996297992791        0.340956199371761        0.035689498920747        0.000000000000000
Se         31.555788538005551        2.929991782514322        8.338070398607915       -0.158616309953810       -0.018755691717244       -0.076737436333010
Se         31.555788538005551        2.929991782514322       11.661927508470416       -0.158616309953810       -0.018755691717244        0.076737436333010
Mo         34.862246508014593        1.019076543852893        9.999996297992791        0.244031223331523        0.029571299105762        0.000000000000000
Se         34.878657784616301        2.940157214040427        8.334867809678844       -0.109096583841608       -0.017393263543618       -0.037691360736156
Se         34.878657784616301        2.940157214040427       11.665130097399487       -0.109096583841608       -0.017393263543618        0.037691360736156
Mo         38.190124115089880        1.026113741748446        9.999996297992791        0.138888483697129        0.024274824228106        0.000000000000000
Se         38.198414730874752        2.945308974009248        8.331394355019455       -0.052695811265779       -0.015002136535744        0.003065527668266
Se         38.198414730874752        2.945308974009248       11.668608863151629       -0.052695811265779       -0.015002136535744       -0.003065527668266
Mo         41.515404597809741        1.027988557489676        9.999996297992791        0.012789444166953        0.017125354474564        0.000000000000000
Se         41.515064687873654        2.945128396855701        8.327862478339799        0.006882074905350       -0.011422130895139        0.042865451048678
Se         41.515064687873654        2.945128396855701       11.672140739831285        0.006882074905350       -0.011422130895139       -0.042865451048678
Mo         44.837705557496101        1.024573524850551        9.999996297992791       -0.104645488060930        0.008189995667614        0.000000000000000
Se         44.828756366210051        2.939626104765291        8.324495245535436        0.063182574413107       -0.008049356261882        0.079231921734127
Se         44.828756366210051        2.939626104765291       11.675497350450145        0.063182574413107       -0.008049356261882       -0.079231921734127
Mo         48.156846416995393        1.016091709726628        9.999996297992791       -0.219324196468983       -0.021566422948435        0.000000000000000
Se         48.139861542376543        2.929147318766856        8.321510411409172        0.111986505085533       -0.012099616880703        0.115152820042733
Se         48.139861542376543        2.929147318766856       11.678487495669160        0.111986505085533       -0.012099616880703       -0.115152820042733
Mo         51.472853731771380        1.003068910300291        9.999996297992791       -0.556666451623253       -0.180566598775660        0.000000000000000
Se         51.448911325648247        2.914350614361565        8.319083242021799       -0.482618133287592       -0.475561737510055       -0.406040105421774
Se         51.448911325648247        2.914350614361565       11.680919976149283       -0.482618133287592       -0.475561737510055        0.406040105421774
