# total energy = -38122.80856984817 eV 

 CRYSTAL
 PRIMVEC
       53.110927513609894        0.000000000000000        0.000000000000000
       -1.659716484800309        2.874735173529163        0.000000000000000
        0.000000000000000        0.000000000000000       19.999981973800079
 PRIMCOORD
48 1
Mo          1.719753077261694        0.895954791690842        9.999996297992791       -0.805251872018267        0.090510585008794        0.000000000000000
Se          1.715753824419919        2.810800238988279        8.330220603521404       -0.029035223857223       -0.060864980988486        0.024919914299370
Se          1.715753824419919        2.810800238988279       11.669777303556929       -0.029035223857223       -0.060864980988486       -0.024919914299370
Mo          5.037077543040022        0.901483639245009        9.999996297992791       -0.177402083591476       -0.032508528668982        0.000000000000000
Se          5.025031984679935        2.814486137357724        8.330252470077911        0.083501497550552        0.040688754140220       -0.009561936927185
Se          5.025031984679935        2.814486137357724       11.669750748093172        0.083501497550552        0.040688754140220        0.009561936927185
Mo          8.349202449014768        0.909678655360359        9.999996297992791       -0.250407047798325       -0.093148795140814        0.000000000000000
Se          8.329875382492565        2.821050647998406        8.330300269912673        0.132222381553780        0.053636578332641       -0.018398565328649
Se          8.329875382492565        2.821050647998406       11.669697637165658        0.132222381553780        0.053636578332641        0.018398565328649
Mo         11.656589860255300        0.920014041854507        9.999996297992791       -0.338143925477985       -0.118076165642682        0.000000000000000
Se         11.631186903625540        2.830095438953974        8.330364003025689        0.174483880200146        0.064881560140852       -0.029102843900563
Se         11.631186903625540        2.830095438953974       11.669639215145393        0.174483880200146        0.064881560140852        0.029102843900563
Mo         14.959978018654056        0.931857778690042        9.999996297992791       -0.406980358267773       -0.139076688532587        0.000000000000000
Se         14.930129677391406        2.841041601114529        8.330433047231459        0.205265398104410        0.072321307570941       -0.038262145892875
Se         14.930129677391406        2.841041601114529       11.669570170939625        0.205265398104410        0.072321307570941        0.038262145892875
Mo         18.260397276204802        0.944450379603519        9.999996297992791       -0.445297525792872       -0.149927777160576        0.000000000000000
Se         18.227967743864991        2.853209314607897        8.330507402529976        0.222970793711206        0.075122525716187       -0.045008209380250
Se         18.227967743864991        2.853209314607897       11.669490504548355        0.222970793711206        0.075122525716187        0.045008209380250
Mo         21.559037317683845        0.957005802867737        9.999996297992791       -0.452974586150732       -0.150098241376299        0.000000000000000
Se         21.526066053883394        2.865823159892379        8.330581757828496        0.226348453442651        0.073133262311895       -0.048507739455967
Se         21.526066053883394        2.865823159892379       11.669416149249836        0.226348453442651        0.073133262311895        0.048507739455967
Mo         24.857199360815262        0.968743317848244        9.999996297992791       -0.432631751743208       -0.141481956614163        0.000000000000000
Se         24.825778936098207        2.878102406333526        8.330650802034263        0.214944063167248        0.066448391107086       -0.048619068272570
Se         24.825778936098207        2.878102406333526       11.669347105044070        0.214944063167248        0.066448391107086        0.048619068272570
Mo         28.156216489879650        0.978914060467101        9.999996297992791       -0.386016345059064       -0.125052342965761        0.000000000000000
Se         28.128317319656748        2.889271634389638        8.330714535147280        0.189765752884769        0.055537652859116       -0.045517030923108
Se         28.128317319656748        2.889271634389638       11.669288683023805        0.189765752884769        0.055537652859116        0.045517030923108
Mo         31.457373989322832        0.986880699594142        9.999996297992791       -0.314275078620355       -0.100808371989370        0.000000000000000
Se         31.434764667480287        2.898624468724785        8.330762334982042        0.152350014530596        0.041052308289589       -0.039591921041769
Se         31.434764667480287        2.898624468724785       11.669240883189042        0.152350014530596        0.041052308289589        0.039591921041769
Mo         34.761824366271860        0.992149303603492        9.999996297992791       -0.221187218651677       -0.068254591884539        0.000000000000000
Se         34.745933576759789        2.905576689136316        8.330794201538550        0.105217044548941        0.023783229084122       -0.031400896932432
Se         34.745933576759789        2.905576689136316       11.669209016632532        0.105217044548941        0.023783229084122        0.031400896932432
Mo         38.070512995236477        0.994379962559064        9.999996297992791       -0.115790453911500       -0.029386950926768        0.000000000000000
Se         38.062333912399382        2.909687474925870        8.330810134816804        0.051484564025554        0.004725432610507       -0.021913007809361
Se         38.062333912399382        2.909687474925870       11.669187772261528        0.051484564025554        0.004725432610507        0.021913007809361
Mo         41.384103762810597        0.993439899142073        9.999996297992791       -0.005958534237363        0.009799249854956        0.000000000000000
Se         41.384172807016363        2.910707204734131        8.330804823724053       -0.005684968738827       -0.014690518693428       -0.011891357431630
Se         41.384172807016363        2.910707204734131       11.669198394447031       -0.005684968738827       -0.014690518693428        0.011891357431630
Mo         44.702973756579574        0.989387535372785        9.999996297992791        0.107403768764206        0.044566236549440        0.000000000000000
Se         44.711285616735452        2.908566834355332        8.330778268260296       -0.061181998149852       -0.031904576266671       -0.002245345393523
Se         44.711285616735452        2.908566834355332       11.669219638818035       -0.061181998149852       -0.031904576266671        0.002245345393523
Mo         48.027154843099908        0.982472492610513        9.999996297992791        0.226099056324625        0.065986363662662        0.000000000000000
Se         48.043183721023517        2.903399141108258        8.330741090611037       -0.106359386193670       -0.054726726559886        0.004216868178079
Se         48.043183721023517        2.903399141108258       11.669256816467295       -0.106359386193670       -0.054726726559886       -0.004216868178079
Mo         51.356344290084778        0.973135591553620        9.999996297992791        0.383764057683905        0.161607275597100        0.000000000000000
Se         51.379102322524353        2.895533412743493        8.330682668590772        0.261233196714512       -0.021468720984672        0.270199408773176
Se         51.379102322524353        2.895533412743493       11.669320549580311        0.261233196714512       -0.021468720984672       -0.270199408773176
