# total energy = -9530.173885315966 eV 

 CRYSTAL
 PRIMVEC
        6.904334320877699        0.000000000000000        0.000000000000000
       -3.452167160438850        5.979326130238110        0.000000000000000
        0.000000000000000        0.000000000000000       19.999950931310131
 PRIMCOORD
12 1
Se          3.430466837668331        5.953406568764102        8.410622560592575       -0.018015470786527        0.066369458204783       -0.795821061410869
Se         -0.011227138039179        5.952673328459225        8.396543932478874       -0.048561475536036        0.152624094249993       -0.639232838536425
Se          5.149657820935223        2.980675693133568        8.361241380662793       -0.042302122094457       -0.126269760856329       -0.296836306530458
Se          1.692808831393387        2.969833126516062        8.410920137401805        0.013218818586646       -0.054829827842699       -0.803191903245463
Se          3.441232075741443        5.955660833919868       11.609221138762869       -0.079603960527718       -0.014114334217660        0.151729607060703
Se         -0.030704955591807        5.960979242647241       11.586998157884260        0.087263537376273       -0.040728606257018        0.309183006535308
Se          5.148569007412821        2.964952452584634       11.566524044889130        0.014933745161111        0.101165755488396        0.496914758800799
Se          1.703692133583386        2.966572899849743       11.626216157693710       -0.111288707375923        0.042517837746028       -0.134724323157395
Mo          1.701094032578440        0.973411716829535        9.980364394450044        0.063633803219431        0.077145213476503        0.527273330046142
Mo          5.165796011976843        0.979097436142778        9.990496505065932       -0.127075802057371       -0.035325173440085        0.068299329099525
Mo         -0.034076342040692        3.969098123210123        9.968984670622374        0.129494439881356       -0.113710430525080        0.599386378168011
Mo          3.417280939982319        3.965507178929835        9.976454469924132        0.118303194153215       -0.054844226026832        0.517020280280552
