# total energy = -9520.851256511332 eV 

 CRYSTAL
 PRIMVEC
        5.974940318459000        0.000000000000000        0.000000000000000
       -2.987470159229500        5.174447689293456        0.000000000000000
        0.000000000000000        0.000000000000000       20.000067101485772
 PRIMCOORD
12 1
Se          2.917649396644115        5.194436852128860        8.473530105939611       -1.092188655625697        0.210015770426719       -7.387518274256021
Se         -0.037553694889579        5.188161969806415        8.273557815891266        0.172995467915353       -0.218730785594341       -2.672488351785892
Se          4.533345555533282        2.531761461140632        8.454958796441778       -2.593812302803487       -1.018850733410763       -8.476946078074134
Se          1.491539289047716        2.578349265791720        8.237971071354524        0.127565083207476       -0.422798563311366       -2.807688843461414
Se          2.997598878057352        5.188356155366765       11.586356305532476       -0.142088480120784       -0.955518006505979        4.371472279757975
Se          0.042042667550837        5.123395409236414       11.486144606511282       -3.618225363277513       -1.550758993195716        6.757094296194518
Se          4.433015552693782        2.551480556673642       11.412547681644631        0.474735641695400        3.001429266498303        9.287837153174520
Se          1.490927455159106        2.594304148924102       11.631738964721333       -0.242143518547458       -0.360574496584857        1.726197010205133
Mo          1.426839050315251        0.823600113353153        9.929476078016235        3.004113499397465        2.674177824427692        1.323438662324058
Mo          4.401801866976121        0.862096056330952       10.070608350796460        2.086550391819369       -3.002415542111443       -6.611200581695613
Mo         -0.042077322204684        3.386013018327480        9.880505467166145        4.660667778501337        2.466096552883472        2.390549023624918
Mo          2.980649764855979        3.447483204323786        9.895862856266680       -2.838169542161461       -0.822072807742581        2.099253703991953
