# total energy = -9521.695382591306 eV 

 CRYSTAL
 PRIMVEC
        6.904334320877699        0.000000000000000        0.000000000000000
       -3.452167160438850        5.979326130238110        0.000000000000000
        0.000000000000000        0.000000000000000       19.999950931310131
 PRIMCOORD
12 1
Se          3.425692490485444        5.969887214788037        8.698579560813124        0.221802998133812        0.105486753391012       -7.141021104781218
Se         -0.024143766686677        5.961336887165062        8.726526234843741        0.012849093786934       -0.007850609898754       -7.407979636572216
Se          5.159024931308358        2.975427018182837        8.715670549991026        0.180044150379961       -0.040465839396583       -7.118033118260037
Se          1.704691190759617        2.970916416571007        8.665748760683918       -0.170458559293128        0.073606345504850       -6.249516396490757
Se          3.424550513588771        5.952807962978482       11.309229883821031        0.132585164371856        0.027271960521739        7.060555824309803
Se         -0.026741867691624        5.974636706367369       11.273263135043281        0.097005194494696       -0.008925074389712        7.725307130228860
Se          5.157532214228184        2.971441836412827       11.337237315993670       -0.206000219716077       -0.002644895003225        6.591592826010187
Se          1.696921052914901        2.981512498453259       11.336619378071953        0.348455082200970        0.071066608667885        6.391684580845138
Mo          1.703215734515246        0.990009046103493       10.016892465608080       -0.559481039510908        0.377871600827298       -0.046677627408435
Mo          5.166777808317272        0.977987219183981       10.004762240639730        0.076278237103326        0.368731839227739        0.048981593980215
Mo         -0.022477060381617        3.969898335557913       10.028608430517179        0.244958106435113       -0.517655085934578        0.024767190703383
Mo          3.435115525966578        3.977726469810924        9.980682684262238       -0.378038465496987       -0.446493603517671        0.120338737435079
