# total energy = -9530.62156883781 eV 

 CRYSTAL
 PRIMVEC
        6.572434350304899        0.000000000000000        0.000000000000000
       -3.286217175152450        5.691892458222800        0.000000000000000
        0.000000000000000        0.000000000000000       20.000068893967864
 PRIMCOORD
12 1
Se          3.252054975886435        5.682244124596552        8.345335371430945       -0.009183984593683       -0.137616558395198       -0.425147781318994
Se         -0.027450429307483        5.667818288441069        8.321823802029598        0.215856290976274        0.121685481872417       -0.431807455701569
Se          4.911041907609561        2.837240382570986        8.309229703327546       -0.212305338814366       -0.126965758792922        0.135762277967157
Se          1.616025557348923        2.831248951417249        8.326635481217458        0.252022729746441        0.046103499816115       -0.417820391147232
Se          3.260697727057086        5.686692348164839       11.655415083979047        0.175261382143352        0.040701866772199        0.316367186197029
Se         -0.017355170145415        5.667845892665340       11.692522391077434       -0.147457460139969       -0.013474643465446       -0.240151169817994
Se          4.896006149546369        2.831408661571960       11.703084950321809        0.182155027018095        0.030404594012484       -0.351252443689752
Se          1.602132088375814        2.840466133350116       11.630154589797085        0.061947673013234       -0.237264848120103        0.488502362610409
Mo          1.634333073231698        0.926788826388019        9.964021450204873       -0.160976583709970        0.042568231390495        0.800336949020148
Mo          4.898259837285089        0.923918644307241       10.007784661569813       -0.098635531737376        0.427624783210807       -0.079850529431003
Mo         -0.014673616930491        3.782702809435091        9.965252467158685       -0.536782302224551       -0.041068763357170        0.751515020617555
Mo          3.257708583914567        3.784781670420093       10.020046195093741        0.278098355432950       -0.152698142054108       -0.546453768195323
