# total energy = -38120.58384174811 eV 

 CRYSTAL
 PRIMVEC
       13.277745107833699        0.000000000000000        0.000000000000000
       -6.638872553916849       11.498859207011680        0.000000000000000
        0.000000000000000        0.000000000000000       20.000015178772852
 PRIMCOORD
48 1
Mo          1.634851577441262        0.943875066480574       10.099977060077816       -0.192372081323351       -0.111066049742717       -2.836689100300027
Se          1.644708975409317        2.866042442535738        8.280445325931696       -0.113840271292712       -0.065739537648946        1.323565674876950
Se          1.625218573365528        2.854790881331360       11.619427771463362        0.253024946206300        0.146078062677900        1.822901128385182
Mo         -0.024865233263440        3.818589204346238       10.099977060077816       -0.192335571642156       -0.111060650423667       -2.836692442735629
Se         -0.015009163069895        5.740757908175913        8.280445325931696       -0.113844385059607       -0.065732852777741        1.323560789778762
Se         -0.034499565113684        5.729505019197024       11.619427771463362        0.253030345525350        0.146088604205569        1.822913469685867
Mo         -1.684584699517163        6.693304669986414       10.099977060077816       -0.192336857194311       -0.111045738018671       -2.836700927379850
Se         -1.674727301549108        8.615472046041578        8.280445325931696       -0.113848498826503       -0.065725653685674        1.323560789778762
Se         -1.694217703592897        8.604220484837199       11.619427771463362        0.253031631077505        0.146086290211690        1.822913469685867
Mo         -3.344301510221865        9.568020135626588       10.099977060077816       -0.192348941384565       -0.111036996264019       -2.836692442735629
Se         -3.334445440028320       11.490187511681752        8.280445325931696       -0.113852355482967       -0.065718711704038        1.323565674876950
Se         -3.353935842072109       11.478938606026396       11.619427771463362        0.253019803997681        0.146087061542983        1.822901128385182
Mo          4.954287854399686        0.943875066480574       10.056707544320409       -0.001125372356286       -0.000671829556083       -2.199671525236703
Se          4.974135427786876        2.871811622785092        8.314246481652708       -0.373871476742513       -0.215854748313688        0.424147364632152
Se          4.934664674904819        2.849021701082006       11.653228927184374        0.437257168396073        0.252450561503548        0.634184475224640
Mo          3.294569715920474        3.818589204346238       10.056707544320409       -0.001144655638608       -0.000638662310490       -2.199671525236703
Se          3.314417289307664        5.746525760650757        8.314246481652708       -0.373866077423463       -0.215856290976274        0.424157649049390
Se          3.274946536425606        5.723737166722182       11.653228927184374        0.437263596156847        0.252444647963636        0.634171619703092
Mo          1.634851577441262        6.693304669986414       10.056707544320409       -0.001121515699822       -0.000657688482381       -2.199673839230582
Se          1.654699150828451        8.621241226290932        8.314246481652708       -0.373869676969496       -0.215853719871964        0.424148650184307
Se          1.615228397946394        8.598452632362356       11.653228927184374        0.437255368623057        0.252449533061825        0.634181904120330
Mo         -0.024865233263440        9.568020135626588       10.056707544320409       -0.001130257454474       -0.000642518966954       -2.199673839230582
Se         -0.005018987650761       11.495958019705618        8.314246481652708       -0.373870191190358       -0.215849348994638        0.424157649049390
Se         -0.044489740532818       11.473168098002532       11.653228927184374        0.437255368623057        0.252459046147770        0.634171619703092
Mo          8.273725459132622        0.943875066480574        9.966697710234403       -0.005375922000821       -0.003139832582812        1.304814611147463
Se          8.287291331309294        2.868185470596142        8.361459487707144       -0.376970428766804       -0.217651950226057       -1.161585332044535
Se          8.260381325299250        2.852647853270955       11.700448572111364        0.208634573191633        0.120452380245560       -0.901801209718881
Mo          6.614007320653410        3.818589204346238        9.966697710234403       -0.005385177976335       -0.003109236441529        1.304821553129099
Se          6.627573192830083        5.742899608461807        8.361459487707144       -0.376977370748439       -0.217640123146233       -1.161585332044535
Se          6.600663186820037        5.727363318911130       11.700448572111364        0.208632259197754        0.120456751122887       -0.901801209718881
Mo          4.954287854399686        6.693304669986414        9.966697710234403       -0.005407032362966       -0.003085839392312        1.304814611147463
Se          4.967856382125381        8.617615074101982        8.361459487707144       -0.376961687012151       -0.217666348410191       -1.161578132952468
Se          4.940945048340824        8.602077456776795       11.700448572111364        0.208659512903436        0.120432325631946       -0.901806094817069
Mo          3.294569715920474        9.568020135626588        9.966697710234403       -0.005393662620556       -0.003113864429286        1.304813325595308
Se          3.308138243646169       11.492327884193136        8.361459487707144       -0.376985598282230       -0.217625210741238       -1.161578132952468
Se          3.281226909861612       11.476787611318928       11.700448572111364        0.208627116989135        0.120488118595463       -0.901806094817069
Mo         11.593157752767514        0.943875066480574        9.904147580805910       -0.090296926240671       -0.052179276409992        3.485794979385091
Se         11.589357662117651        2.858155461941685        8.383159306536875        0.701577490055052        0.405065399778027       -1.192469437010749
Se         11.597188876182251        2.862677861925413       11.722148390941097       -0.446637328248574       -0.257872506271510       -0.703189315346703
Mo          9.933443597611834        3.818589204346238        9.904147580805910       -0.090315181081268       -0.052148680268709        3.485792665391212
Se          9.929636868089418        5.732869599807350        8.383159306536875        0.701591888239185        0.405064371336303       -1.192474579219368
Se          9.937472065477550        5.737393327565588       11.722148390941097       -0.446648126886674       -0.257872506271510       -0.703187772684118
Mo          8.273725459132622        6.693304669986414        9.904147580805910       -0.090319809069026       -0.052140966955780        3.485792665391212
Se          8.269918729610206        8.607585065447523        8.383159306536875        0.701585717588842        0.405051001593893       -1.192469437010749
Se          8.277753926998338        8.612107465431253       11.722148390941097       -0.446642727567624       -0.257862993185564       -0.703189315346703
Mo          6.614007320653410        9.568020135626588        9.904147580805910       -0.090337035467899       -0.052109856593635        3.485794979385091
Se          6.610200591130994       11.482297875538677        8.383159306536875        0.701601401325130        0.405069770655353       -1.192442183305068
Se          6.618035788519126       11.486817619973385       11.722148390941097       -0.446615730972374       -0.257853737210050       -0.703213483727213
