# total energy = -9503.125850759989 eV 

 CRYSTAL
 PRIMVEC
        8.895998732938999        0.000000000000000        0.000000000000000
       -4.447999366469499        7.704157302693497        0.000000000000000
        0.000000000000000        0.000000000000000       20.000011039389658
 PRIMCOORD
12 1
Se          4.411020478936418        7.689956619916106        7.995057350860476       -0.044482675659379       -0.023212958148266        2.911930411035314
Se         -0.039258042408460        7.681521433917533        8.006694206803033        0.058217514880951        0.042126515670116        2.924056253179975
Se          6.653501599538849        3.837031069489982        8.062975632386845       -0.089992507490421       -0.006836823469502        2.852970361229768
Se          2.201176998485395        3.824620261657659        8.005802827729992        0.083689959496442       -0.012966336143449        2.883012429534607
Se          4.421081853503372        7.699378372174162       11.980524386408657        0.066784434440343        0.044324809854774       -2.926232692978001
Se         -0.031678651487996        7.683654694413692       11.995806822631973       -0.043368873272486       -0.077061138365581       -2.921124165825373
Se          6.621697514468719        3.834784829809915       11.968468528925779        0.054925472923014        0.077125930194182       -2.883958338810087
Se          2.176449680407317        3.834514391448433       11.965186794993198       -0.082463799851221       -0.043095050663520       -2.869490220639435
Mo          2.177562569848808        1.274611581656513       10.013763181735317       -0.026817646390243        0.031637438528910        0.030477613374875
Mo          6.633651957566042        1.257986739224397        9.964735553518345        0.016687495410649        0.067258803185454       -0.033356735980700
Mo         -0.049586296937402        5.129835858155229       10.037194352798005       -0.050378217841158       -0.039959588958034        0.078054870181219
Mo          4.433444622942538        5.114464461944584        9.963214337735012        0.057198843353510       -0.059341087464220       -0.046339784302161
