# total energy = -9513.73807769628 eV 

 CRYSTAL
 PRIMVEC
        5.974940318459000        0.000000000000000        0.000000000000000
       -2.987470159229500        5.174447689293456        0.000000000000000
        0.000000000000000        0.000000000000000       20.000067101485772
 PRIMCOORD
12 1
Se          2.972555513206562        5.168794200764130        8.553538739262001        0.359860243807666       -0.668622617677933       -9.470610273668626
Se         -0.019900136224660        5.163416754477517        8.561392798310614       -0.357293767485882        0.280427775937395      -10.353832940757192
Se          4.453256858010627        2.580116653137921        8.581574354224273       -0.535097971791370        0.175651675777540      -10.911661788638789
Se          1.467454304624008        2.573136727857897        8.559271694497562        0.536257282724542       -0.216045781363887       -9.337356622176291
Se          2.975928367016333        5.155306967983272       11.410013709455573       -0.757555315971961        0.447020422790696       11.304859742255264
Se         -0.020344671784353        5.171103515197213       11.397540424046758        0.759317550865721       -0.507186834738279       11.282111125545301
Se          4.466198578740409        2.577485289421671       11.457653701096742        0.389775299559614       -0.455848052327076        9.659716024077138
Se          1.464551678617301        2.584158700263358       11.458160973529779       -0.525784146430056       -0.044093410466915        9.619909930046383
Mo          1.476360550662703        0.841705975000179       10.025705479315176       -0.323417668434654        1.356521832806223       -2.150788404551543
Mo          4.464986860843824        0.853435380339346        9.978760970727077        0.251649148290264        0.134706325427228        0.932997960969135
Mo         -0.032868146691843        3.439125457806325        9.978345712374942        0.773551441433774       -0.410656008988694        1.330034830430187
Mo          2.968851647703150        3.429678479668810       10.032959654355817       -0.571261839457228       -0.091875584286729       -1.905379326420536
