# total energy = -9509.52682053392 eV 

 CRYSTAL
 PRIMVEC
        6.705204922078999        0.000000000000000        0.000000000000000
       -3.352602461039500        5.806875092643465        0.000000000000000
        0.000000000000000        0.000000000000000       20.000050559404965
 PRIMCOORD
12 1
Se          3.323512600005552        5.781928377730870        8.815104934089909       -0.022880257250611        0.573502042642131      -11.856793305065514
Se         -0.008303725775503        5.784241002908495        8.796897620644497       -0.794058569406678        0.190763598467302      -11.668753791614170
Se          4.999818524168747        2.894218560074366        8.854735377261365        0.104941165056527        0.352795363385908      -12.347699135984481
Se          1.657987304316076        2.900282076885402        8.812226389616860       -0.423846288317504       -0.379146868564831      -12.228438719696825
Se          3.319295696630057        5.787000865254423       11.198398277950222       -0.347763712252135        0.172440109384492       11.738289821886585
Se         -0.018546596814471        5.795632475550615       11.193796495812201       -0.167607461724277        0.052735663382577       11.846265404249232
Se          4.990825503327255        2.893532617610838       11.154957266821549        0.041678629299393        0.230449879037232       12.520522854131958
Se          1.662692346609898        2.880293190492193       11.180697877996920       -0.197209871192185        0.363946499886821       12.438821386708515
Mo          1.638801030952038        0.962290108666753        9.997319729516425        0.649771537990805       -0.709898612042452       -0.339223017956699
Mo          4.989087514211453        0.962906316999092        9.965583994620223        0.703580637422616       -1.070576724130983       -0.136714357892980
Mo         -0.016642989137092        3.863202474814831        9.986150199157224        0.368107317990952        0.105101601965442        0.146556288079475
Mo          3.308960293763164        3.866339169677379        9.964504456627770        0.085286872383098        0.117887446586362       -0.112833169734665
