# total energy = -9518.878831251699 eV 

 CRYSTAL
 PRIMVEC
        6.904334320877699        0.000000000000000        0.000000000000000
       -3.452167160438850        5.979326130238110        0.000000000000000
        0.000000000000000        0.000000000000000       19.999950931310131
 PRIMCOORD
12 1
Se          3.438263902416898        5.965699045588993        7.848986723527051       -0.031402182484587        0.007607126320641        3.942950695364000
Se         -0.040319241133629        5.967244235610005        7.822338064348759        0.021386188536336       -0.018552317366359        3.967970882731443
Se          5.144465761525923        2.975088015367682        7.855797158901164        0.041148724701197       -0.008216992262864        3.942870991130404
Se          1.693761629529668        2.971541949260479        7.805476989503743       -0.014186325138327       -0.012468827459553        3.958467052761653
Se          3.430377081322160        5.969318988073429       12.200701651363820       -0.021871613029978       -0.056525728245272       -3.979402012491664
Se         -0.039918099309587        5.968537417428306       12.153005129008333        0.038585847925446       -0.012763990234288       -3.971264467351965
Se          5.160374038234658        2.975185366481606       12.135843715620361       -0.038617215398022        0.006562743750105       -3.974823904158094
Se          1.714471180325141        2.966400291491722       12.195958373685377        0.011294604121385        0.034797325725336       -3.970284619499599
Mo          1.697201368888329        0.970009260876206        9.970084531079690        0.032706760811248        0.027295357570956        0.014283512881227
Mo          5.140606238640553        0.984359229328719        9.986135727508866        0.030022527912086        0.020544923206254        0.030332088870955
Mo         -0.027680857159263        3.974237019245153        9.968526913256900       -0.051190686802974       -0.010053532071170        0.024720396604950
Mo          3.444162275227224        3.963336456219351       10.015740822643357       -0.017876631153812        0.021773653955784        0.014179897377553
