# total energy = -9519.991018563709 eV 

 CRYSTAL
 PRIMVEC
        8.099322384569499        0.000000000000000        0.000000000000000
       -4.049661192284749        7.014215668096800        0.000000000000000
        0.000000000000000        0.000000000000000       19.999964538468078
 PRIMCOORD
12 1
Se          4.023427487081129        6.964721518936934        8.387102647944591       -0.109563496384221       -0.041623607667169        1.285393003414047
Se         -0.066163364559548        7.024107370525075        8.503122201374595        0.109357036708164       -0.073403742485258        0.099132011979548
Se          5.983062587688911        3.528554839722740        8.472230575867609        0.060905347326146       -0.087248624971278        0.106669975594263
Se          2.091556863607650        3.434217982248467        8.436746634568573       -0.081109084990524        0.079776224516457        0.597514100009802
Se          3.963694174562690        7.024006938927506       11.724367691588570        0.069886214679374       -0.019570217562507       -1.862561955022447
Se         -0.114052228022792        7.026531497714777       11.517793664237885        0.240776205275644       -0.066420108959681       -0.328881522202861
Se          6.049489990158197        3.500203971647793       11.464458816403257       -0.023863447538580       -0.030872277886390       -0.474633311743880
Se          1.950265804473313        3.498002575823667       11.530597073063413        0.121087443010017       -0.026493944357672       -0.862752820128149
Mo          2.069090963177332        1.145256334161704       10.052576029070480       -0.517967989329049        0.093510292406736        0.318161817005089
Mo          6.017381846429047        1.120009126424524        9.962589317648959        0.031127331433897        0.106512109789657        0.460223557641054
Mo         -0.097330367027610        4.723162774970342        9.958614980154850        0.156055490061507       -0.190328310507697        0.390864162234705
Mo          4.013617587808938        4.615452316374667        9.883471896867530       -0.056691050252376        0.256162721905665        0.270870981218828
