# total energy = -9500.725337040923 eV 

 CRYSTAL
 PRIMVEC
        5.178263970089500        0.000000000000000        0.000000000000000
       -2.589131985044750        4.484506054696759        0.000000000000000
        0.000000000000000        0.000000000000000       19.999998575148734
 PRIMCOORD
12 1
Se          2.528744106278360        4.500711431791155        8.057143126448622        0.515167542515096       -0.779446212284260       -4.153156470399194
Se         -0.027579433904697        4.486750832127793        8.100666952943621        0.465951978042713       -0.560247742816013       -4.693970521291537
Se          3.895108800051614        2.199528206983965        8.333138899964027       -2.461551097574633       -0.953240779419018       -8.074195443505987
Se          1.292819881911661        2.192762287280646        8.191449169908848        0.036601726729773        1.245587166493724       -6.049392435674139
Se          2.532707031694670        4.463866530164776       11.796579330246628        2.892750487106996       -1.054707868332492        6.221637398241536
Se         -0.021800491314077        4.463812676219487       11.797500025580510       -1.622247262970366       -0.699660988902719        5.119549219692810
Se          3.877937158900401        2.187259346159632       11.882889598447283       -0.738453810725083        1.833865602713222        3.695799436952848
Se          1.241639992136884        2.220635328752447       11.834278645428070        0.498620172289318       -0.342288802735397        4.164400166655250
Mo          1.305441900338754        0.731264599154496        9.906245264916706       -0.791032379634347       -0.939167839980742        2.272831012812555
Mo          3.895860166153674        0.701779564108806       10.137059649640284       -1.482237006462984        1.220920248858413       -2.463361155008551
Mo         -0.040909321016501        2.964192608745538        9.900139056043177        1.669259905270335        1.593341879880775        2.933547741849079
Mo          2.515164109016800        3.001605048103038        9.976839501968142        1.017169488302754       -0.564954406365060        1.026310792564898
