# total energy = -9526.334088881347 eV 

 CRYSTAL
 PRIMVEC
        6.107710890233100        0.000000000000000        0.000000000000000
       -3.053855445116550        5.289430323714121        0.000000000000000
        0.000000000000000        0.000000000000000       20.000047449589029
 PRIMCOORD
12 1
Se          2.969507957722431        5.324515458151975        8.424286230656941        0.195409841065075       -0.654104105862813       -2.445706153046221
Se         -0.020260498565081        5.270104304915244        8.407877865350329        0.014153415003165        0.191169575837779       -1.676342012090967
Se          4.513945876631915        2.621113745435021        8.306571097127300        0.048444490289952        0.049354404105099        0.093556829394738
Se          1.472015126257456        2.595060693861643        8.346082489647308       -0.210337929796704        1.138989953151422       -0.913435456719557
Se          3.018654874942869        5.255714538057855       11.709721031116480        0.728214130701903        0.150809408828318        3.716588100847646
Se         -0.057461954826402        5.233849543841909       11.623324406718687       -0.493762842027731        1.800396766584626        5.471792052762598
Se          4.583366729381393        2.648626539911165       11.760103538250014       -1.355950276318212       -0.297616636688404        2.573741234121481
Se          1.448423482172842        2.656150018185754       11.637221892078324        0.645887884931242       -0.414358399194434        3.836083001848334
Mo          1.466667825373057        0.882186767105666       10.036628457701859        0.221182847774351       -0.195620414508026       -0.389054104800787
Mo          4.569216384790901        0.843659937581165       10.154732652415207       -0.983707851266225        2.045180295037121       -3.405615348602467
Mo         -0.095759134421431        3.549115062699415       10.120287606078648        0.565972563671639       -2.414209868143905       -5.055040726787273
Mo          3.004618744546025        3.544749881726165       10.073577665503413        0.624493983081977       -1.399991236257212       -1.806567159817095
