# total energy = -9528.972376596155 eV 

 CRYSTAL
 PRIMVEC
        7.037104892651799        0.000000000000000        0.000000000000000
       -3.518552446325899        6.094308764658774        0.000000000000000
        0.000000000000000        0.000000000000000       19.999937665154004
 PRIMCOORD
12 1
Se          3.520605169823086        6.098787178212458        8.427697338541870       -0.128171092493235       -0.373422304819636        0.016166075456674
Se         -0.074946574527720        6.118454478966441        8.423988080552954        0.581927551464499        0.153798317588160       -0.783619371689077
Se          5.270469265192114        3.042889896764440        8.291776361250792       -0.081731292233433       -0.145294904305213        0.851590370768274
Se          1.719933880839601        3.001042345099308        8.116738228992928        0.287551020426980        0.151757117876815        2.145753925203029
Se          3.444638215085931        6.123683751612170       11.608794567977014        0.424614277174764       -0.486932446319003       -0.242184656216411
Se         -0.067532984523312        6.040086464039914       11.648499321202335        0.351748666821493        0.127188930646990       -0.679814377626937
Se          5.210987432376485        3.024675054460300       11.703666001297789        0.468245403086824        0.068078985460198       -1.320549769521858
Se          1.641141528488047        3.081708678483775       11.614406659128905        0.629125056164324       -0.243927093606987       -0.949020825915768
Mo          1.767356227000692        0.992388717303010       10.007126271963319       -0.816754992699157        0.894871312273374        0.129872906435721
Mo          5.242605144659169        1.013976443982198        9.989827660716202       -0.249037163422201        0.281405309795882        0.364438095030805
Mo          0.006562804022887        4.088700092149526        9.877882099794386       -0.548227315948044       -0.960293318540091        1.027837771414335
Mo          3.542115488348455        3.989286911331035       10.013613075253366       -0.919290118342814        0.532769579728649       -0.560470400449220
