# total energy = -9523.645063749711 eV 

 CRYSTAL
 PRIMVEC
        6.638793177329500        0.000000000000000        0.000000000000000
       -3.319396588664750        5.749360861396781        0.000000000000000
        0.000000000000000        0.000000000000000       19.999981854470612
 PRIMCOORD
12 1
Se          3.348066880880365        5.728054982452776        8.026705253895866       -0.116985760305005       -0.004642643051739        3.331297064314304
Se          0.067193217385705        5.682874675484461        7.890177808324767       -0.364197182557001        0.259078611303116        3.634500967777774
Se          4.911592961728674        2.843835269837882        8.104222458551634        0.198751762446617        0.190864128645805        2.965269769709772
Se          1.601573004547584        2.863521947125935        7.919531896237646        0.201558637021344       -0.149344650703172        3.635832799810116
Se          3.233876982713027        5.740368616038087       11.975733617929675        0.357646265886720        0.077405152122198       -3.350372601407655
Se          0.039333521817042        5.698173110482299       12.039248943895140       -0.399264217124408        0.147690145079982       -3.368179041413817
Se          4.875474607447413        2.903558517140456       12.190264227817124        0.386875865229744       -0.050157874201831       -3.657241099843514
Se          1.675900932960966        2.863677294886284       12.219917061422985       -0.269074293527321       -0.077846610732146       -3.738055022059303
Mo          1.673719425522895        0.935472346617500        9.963583785450831        0.034997100530188        0.035533432889158        0.224492630352024
Mo          4.925740893868881        0.979330205984892        9.951655201869805        0.150042448412782       -0.468683519261170        0.492818218304406
Mo         -0.034246214605254        3.813087123900269       10.136477876168023        0.120519228957608       -0.154182183461575       -0.281309921825998
Mo          3.296962114880601        3.782337561661515       10.051260335305868       -0.300870112081698        0.194286011371374        0.110946493392323
