# total energy = -38121.58096662398 eV 

 CRYSTAL
 PRIMVEC
       13.277745107833699        0.000000000000000        0.000000000000000
       -6.638872553916849       11.498859207011680        0.000000000000000
        0.000000000000000        0.000000000000000       20.000015178772852
 PRIMCOORD
48 1
Mo          1.681862761770057        1.029187234347427       10.000007589386426       -1.005903680549636       -1.878568622011929        0.000000000000000
Se          1.647425602058380        2.840173411742146        8.354967998123923       -0.228965837629764        0.543629667221722       -0.960942008157388
Se          1.647425602058380        2.840173411742146       11.645048508423438       -0.228965837629764        0.543629667221722        0.960942008157388
Mo          0.007035877132641        3.857653658227996       10.000007589386426       -0.601976765759874       -1.128362807708793        0.000000000000000
Se         -0.001650423716904        5.739254867429707        8.351498523327246       -0.574912293355915       -0.188244173354382       -0.784052088544373
Se         -0.001650423716904        5.739254867429707       11.648517983220115       -0.574912293355915       -0.188244173354382        0.784052088544373
Mo         -1.711877104586315        6.632136753823645       10.000007589386426        0.673950460028165        1.084143413130711        0.000000000000000
Se         -1.682655443152995        8.632637514916986        8.319029125440551       -0.094049195870016       -0.519883204929227        0.318758827425765
Se         -1.682655443152995        8.632637514916986       11.680988708881323       -0.094049195870016       -0.519883204929227       -0.318758827425765
Mo         -3.393071995777449        9.491151285873807       10.000007589386426        1.102425507434137        1.901573577821553        0.000000000000000
Se         -3.366171284188978       11.494528006557504        8.302431944055758        0.405522542124263       -0.194439249188223        0.621399659045444
Se         -3.366171284188978       11.494528006557504       11.697577923619050        0.405522542124263       -0.194439249188223       -0.621399659045444
Mo          4.986190292570279        0.982939520362332       10.000007589386426       -0.632931833205031       -1.145947104302610        0.000000000000000
Se          4.977503991720733        2.864539401789532        8.351498523327246       -0.534304529001446       -0.189515070214589       -0.797139523700802
Se          4.977503991720733        2.864539401789532       11.648517983220115       -0.534304529001446       -0.189515070214589        0.797139523700802
Mo          3.267275983076811        3.757421288183471       10.000007589386426        1.015045499032642        1.394759038987295        0.000000000000000
Se          3.296498972284642        5.757924704825832        8.319029125440551       -0.098554027730763       -0.492083910913601        0.303060950063858
Se          3.296498972284642        5.757924704825832       11.680988708881323       -0.098554027730763       -0.492083910913601       -0.303060950063858
Mo          1.586083747434699        6.616437148008143       10.000007589386426        1.188946252775384        1.936549852406833        0.000000000000000
Se          1.612983131248659        8.619808557593796        8.302431944055758        0.347033261517794       -0.154364474757121        0.746495967894898
Se          1.612983131248659        8.619808557593796       11.697577923619050        0.347033261517794       -0.154364474757121       -0.746495967894898
Mo         -0.027713309589070        9.581680279793527       10.000007589386426       -0.328257772297366       -0.164008429911781        0.000000000000000
Se         -0.040155884529621       11.467928699782981        8.324644283846654       -0.001125629466717        0.097963702181293       -0.153528094525228
Se         -0.040155884529621       11.467928699782981       11.675368239377176       -0.001125629466717        0.097963702181293        0.153528094525228
Mo          8.246430398514446        0.882707150317806       10.000007589386426        0.640348183585904        1.005389716798158        0.000000000000000
Se          8.275653387722279        2.883209239185657        8.319029125440551       -0.098113083341677       -0.526675805404605        0.314366095712913
Se          8.275653387722279        2.883209239185657       11.680988708881323       -0.098113083341677       -0.526675805404605       -0.314366095712913
Mo          6.565236835097825        3.741721682367968       10.000007589386426        1.213560462772350        1.936023033133808        0.000000000000000
Se          6.592137546686296        5.745094419728132        8.302431944055758        0.316705800634596       -0.131795835348827        0.760597703701441
Se          6.592137546686296        5.745094419728132       11.697577923619050        0.316705800634596       -0.131795835348827       -0.760597703701441
Mo          4.951441105848566        6.706966141927865       10.000007589386426       -0.232175861360227       -0.137682635775954        0.000000000000000
Se          4.938998530908016        8.593210578593784        8.324644283846654        0.328784334459960        0.426470614486254        0.126325296709415
Se          4.938998530908016        8.593210578593784       11.675368239377176        0.328784334459960        0.426470614486254       -0.126325296709415
Mo          3.341580900249270        9.653330975718932       10.000007589386426       -1.082023280517063       -2.301978593928105        0.000000000000000
Se          3.307143740537592       11.464318480888160        8.354967998123923       -0.423846288317504        0.333083477975945       -1.041528130531351
Se          3.307143740537592       11.464318480888160       11.645048508423438       -0.423846288317504        0.333083477975945        1.041528130531351
Mo         11.544388594986440        0.867007544502303       10.000007589386426        1.087477106978462        1.886074961043636        0.000000000000000
Se         11.571287978800401        2.870378954087957        8.302431944055758        0.275411037208617       -0.273642888774945        0.667111322564784
Se         11.571287978800401        2.870378954087957       11.697577923619050        0.275411037208617       -0.273642888774945       -0.667111322564784
Mo          9.930595521286204        3.832250676287689       10.000007589386426       -0.320840136364339       -0.170812600356552        0.000000000000000
Se          9.918152946345653        5.718496440728119        8.324644283846654        0.035837851639408        0.158089747791216       -0.141290666453533
Se          9.918152946345653        5.718496440728119       11.675368239377176        0.035837851639408        0.158089747791216        0.141290666453533
Mo          8.320735315686907        6.778615510078756       10.000007589386426       -1.074186040360718       -2.294816525763446        0.000000000000000
Se          8.286298155975230        8.589603015247986        8.354967998123923       -0.351730669091326        0.485320363916921       -1.045532111272600
Se          8.286298155975230        8.589603015247986       11.645048508423438       -0.351730669091326        0.485320363916921        1.045532111272600
Mo          6.645908431049490        9.607083261733836       10.000007589386426       -0.310217618909467       -1.241282109437828        0.000000000000000
Se          6.637222130199945       11.488688454259078        8.351498523327246        0.029686741689260        0.285559957249671       -0.178677865549871
Se          6.637222130199945       11.488688454259078       11.648517983220115        0.029686741689260        0.285559957249671        0.178677865549871
