# total energy = -9525.647996657946 eV 

 CRYSTAL
 PRIMVEC
        6.771563749103600        0.000000000000000        0.000000000000000
       -3.385781874551800        5.864343495817446        0.000000000000000
        0.000000000000000        0.000000000000000       19.999962507379962
 PRIMCOORD
12 1
Se          3.350249448091128        5.830374623426442        7.997087450823744        0.019061138909218        0.091781996089862        3.174879305655583
Se          0.023720787813110        5.804766600796457        8.111327117052996       -0.392950870492329        0.587527930871543        2.284037428056123
Se          4.992639417238964        2.953326790217297        8.156829316821472        0.143289957164633       -0.309713682464797        2.105940632080209
Se          1.591671633823424        2.933322236589695        7.963717861824536        0.293022073287253       -0.203474623952814        3.152657508218646
Se          3.382706907453332        5.863941942087123       11.903465792093879       -0.129012872044179       -0.134616593886825       -3.119792367381930
Se         -0.095959152732172        5.856143132117281       11.932622114128394        0.179059931650269        0.088610538924042       -3.262422064959873
Se          5.137655840707892        2.870266112114417       12.013838218266018       -0.424788598046951        0.261919167344297       -3.305022178043806
Se          1.665216910546063        2.933782025768259       12.024185167674649        0.158156339392833       -0.020397598929317       -3.560487873571154
Mo          1.631455248005783        0.944056882924904        9.893943305473643        0.153556633783063        0.249749616426375        0.705411520801440
Mo          5.018215613519328        1.007505080941254       10.056382285312640        0.330279688726390       -0.451643268339252       -0.079194383611208
Mo         -0.072713728694249        3.919721707637744        9.852705159397978        0.404760723917346       -0.417431125954767        1.566606508828438
Mo          3.415465701402371        3.876306503816741       10.004954967263698       -0.734434403357977        0.257687643871654        0.337386221037963
