# total energy = -9529.629483104338 eV 

 CRYSTAL
 PRIMVEC
        6.572434350304899        0.000000000000000        0.000000000000000
       -3.286217175152450        5.691892458222800        0.000000000000000
        0.000000000000000        0.000000000000000       20.000068893967864
 PRIMCOORD
12 1
Se          3.245197955128762        5.686645683880952        8.161310495839583        0.166860813032787       -0.095379742350203        2.010181908954779
Se         -0.016662435564893        5.685346970853332        8.202468394228063       -0.036795587994712       -0.060961397400094        1.819205680161078
Se          4.907741231078838        2.829762266767209        8.196887082977783        0.040254494622338       -0.018738722428801        1.863073347669615
Se          1.606743965559423        2.842285383178280        8.166617736577454        0.043811874545020        0.022813408538563        2.065196856307765
Se          3.246197622393443        5.684716017155703       11.785962032992282        0.327382825500829       -0.153892420005890       -1.399254871982960
Se         -0.020529655936612        5.683021643580194       11.788965635490372       -0.127654300527017        0.023252553154632       -1.378844674642526
Se          4.911135236177335        2.834101387925281       11.826980595772536       -0.071103118349081       -0.013979865462271       -1.641204015044616
Se          1.628751104737984        2.820622639559676       11.841400516737105       -0.020988695810081        0.089386241094231       -1.958327363019082
Mo          1.615767917922391        0.944172915244576        9.987533676849653       -0.060052512026671        0.003497473192269       -0.009208924305485
Mo          4.923028713377647        0.923433598652189       10.036711916875808       -0.273291933036693        0.325083486916806       -0.744132865923999
Mo         -0.036694558221187        3.784550977974398       10.036787499870837        0.322483072018136       -0.158436075541712       -0.544887708560381
Mo          3.276436735595761        3.776279569344539        9.998479409016651       -0.310906674864425        0.037355317402899       -0.081797369614188
