# total energy = -9523.199504213391 eV 

 CRYSTAL
 PRIMVEC
        6.771563749103600        0.000000000000000        0.000000000000000
       -3.385781874551800        5.864343495817446        0.000000000000000
        0.000000000000000        0.000000000000000       19.999962507379962
 PRIMCOORD
12 1
Se          3.372887462860757        5.804926409700935        8.086845205474487        0.056073985218086        0.115497090909781        2.305248010168118
Se         -0.045312595983502        5.894105195651131        7.857449680440729        0.192883988191381        0.116671314247948        3.465915972195008
Se          5.102606226742532        2.881249588515463        7.949914029121988       -0.173140478198411        0.071199534760688        3.235863585884031
Se          1.680047312312975        2.948832503357017        7.978965391918392       -0.059838853258548       -0.104575811134141        3.104719782588104
Se          3.290423359524173        5.857356596341120       12.200368390455200        0.194742639496749       -0.135872064121174       -3.494471685098501
Se          0.007238124491417        5.814504109467667       12.196481512863215       -0.015695563368028       -0.113008776159006       -3.582932071530866
Se          5.076760522224953        2.915746642878897       11.966608592585144        0.019903175570593        0.056498217429160       -3.311836632905815
Se          1.734063399183200        2.909386790205739       11.851712084672229       -0.310339489253740       -0.145101043040274       -2.604957011543627
Mo          1.662179187048216        1.005825733131477        9.810542017714184        0.266541755782422       -0.076107515777172        0.630175352274771
Mo          5.113131945434138        0.963946997125146        9.802496045667500       -0.601698058052719        0.068280560038066        0.936185101871243
Mo          0.015915883435893        3.928884987703031       10.171645811980756       -0.159004032483689       -0.043477888095211       -0.757133911975627
Mo          3.316250103663255        3.869677820062743        9.977271460344614        0.589571187466335        0.189995866720473        0.073223765183590
