# total energy = -9526.78312385718 eV 

 CRYSTAL
 PRIMVEC
        6.107710890233100        0.000000000000000        0.000000000000000
       -3.053855445116550        5.289430323714121        0.000000000000000
        0.000000000000000        0.000000000000000       20.000047449589029
 PRIMCOORD
12 1
Se          3.047143681619273        5.268574323337242        8.334756961343549       -0.377038820141437        0.110030151816403       -2.546026529437640
Se         -0.019597811933491        5.281148267746964        8.396526684660831        0.025542378652710        0.011429329987205       -3.623724698285192
Se          4.546135956107800        2.636251096105375        8.395964775258930        0.164135442464672       -0.263801987030175       -3.620595150119617
Se          1.502910981795700        2.640538098379229        8.342246847208241       -0.161934834286136       -0.024976992815042       -2.684318516934955
Se          3.035147526659766        5.278207404953317       11.612580332491680        0.036149212371293       -0.162432342970032        2.927091698927819
Se         -0.030437777221477        5.284354205193247       11.674140561325427       -0.059918300381713       -0.069817823304741        1.806261455514690
Se          4.569832042048636        2.626601523669896       11.629339891174478       -0.273322529177976        0.109695908256162        2.697510081815920
Se          1.498149410385675        2.624659882377891       11.639230107419033       -0.003584376517932        0.123751621295564        2.314924875457939
Mo          1.495298941713203        0.872451686717724        9.975462176220530        0.246860723624174        0.124398254029414        0.841815803514690
Mo          4.559539327656416        0.863210720140801        9.999370199729260        0.060072823750716       -0.141276268269400        0.238072689094161
Mo         -0.033925280139800        3.517489335709788        9.984696424315473        0.606077420023162        0.036933656296134        1.022629485414497
Mo          3.026052534373119        3.509230489044015        9.985889871023426       -0.263038883271103        0.146066235598076        0.626358805037688
