# total energy = -38122.735257584995 eV 

 CRYSTAL
 PRIMVEC
       53.110927513609894        0.000000000000000        0.000000000000000
       -1.659716484800309        2.874735173529163        0.000000000000000
        0.000000000000000        0.000000000000000       19.999981973800079
 PRIMCOORD
48 1
Mo          1.678082243534516        1.027080360629194        9.999996297992791       -0.689305094964748       -0.763302505435079        0.000000000000000
Se          1.684243111126094        2.945771039078616        8.330507402529976       -0.207361362337548       -0.081727435576968        0.046284762669937
Se          1.684243111126094        2.945771039078616       11.669490504548355       -0.207361362337548       -0.081727435576968       -0.046284762669937
Mo          5.002640417640198        1.027627403182584        9.999996297992791       -0.009732658253339       -0.004277289129353        0.000000000000000
Se          5.000122959676053        2.944246755458976        8.326996770221328        0.019126444958680       -0.013218818586646        0.046803097298741
Se          5.000122959676053        2.944246755458976       11.673001136857005        0.019126444958680       -0.013218818586646       -0.046803097298741
Mo          8.324160646692100        1.022916463912126        9.999996297992791       -0.125675064429532        0.014837071639072        0.000000000000000
Se          8.313129507047524        2.937453867829985        8.323703892715484        0.073368004135356       -0.010370035011674        0.086149734989380
Se          8.313129507047524        2.937453867829985       11.676288703270096        0.073368004135356       -0.010370035011674       -0.086149734989380
Mo         11.642510153371441        1.013234341826395        9.999996297992791       -0.233319231446680        0.005858261169291        0.000000000000000
Se         11.623666396289613        2.925822574704504        8.320841213722501        0.126739501613682       -0.005118040238574        0.115533857701407
Se         11.623666396289613        2.925822574704504       11.679156693355832        0.126739501613682       -0.005118040238574       -0.115533857701407
Mo         14.957757981883988        0.999197123684548        9.999996297992791       -0.324091811984616       -0.003912449427829        0.000000000000000
Se         14.932296603233961        2.910075184696719        8.318583999303172        0.171727656380318       -0.000059135399119        0.136725413641511
Se         14.932296603233961        2.910075184696719       11.681408596682408        0.171727656380318       -0.000059135399119       -0.136725413641511
Mo         18.270180309052808        0.981681139790560        9.999996297992791       -0.398568476298246       -0.010467736975437        0.000000000000000
Se         18.239699947752751        2.891215494336636        8.317080960054536        0.205617896505248        0.004758085635238        0.149038946400768
Se         18.239699947752751        2.891215494336636       11.682916947023795        0.205617896505248        0.004758085635238       -0.149038946400768
Mo         21.580186089019762        0.961791097436713        9.999996297992791       -0.445900192643029       -0.018809170686883        0.000000000000000
Se         21.546614671738411        2.870417255122306        8.316417073460617        0.226505033695102        0.009248776422283        0.152161809695137
Se         21.546614671738411        2.870417255122306       11.683580833617716        0.226505033695102        0.009248776422283       -0.152161809695137
Mo         24.888396719636756        0.940775103419577        9.999996297992791       -0.463552109280187       -0.026096451631416        0.000000000000000
Se         24.853848061289153        2.848986995870565        8.316640139356174        0.233178592040948        0.013042183720581        0.146044124101014
Se         24.853848061289153        2.848986995870565       11.683357767722159        0.233178592040948        0.013042183720581       -0.146044124101014
Mo         28.195507954054214        0.919955619834242        9.999996297992791       -0.457730614902522       -0.026629698665215        0.000000000000000
Se         28.162154291575671        2.828279045233008        8.317734224462953        0.225185800073876        0.015839030988500        0.131141489302049
Se         28.162154291575671        2.828279045233008       11.682268993708130        0.225185800073876        0.015839030988500       -0.131141489302049
Mo         31.502284589628339        0.900639175497542        9.999996297992791       -0.420857893778524       -0.026303682638766        0.000000000000000
Se         31.472245049026643        2.809589309840969        8.319630284575188        0.202824905893793        0.017506649243669        0.108219065940761
Se         31.472245049026643        2.809589309840969       11.680367622503143        0.202824905893793        0.017506649243669       -0.108219065940761
Mo         34.809533912457340        0.884036699556788        9.999996297992791       -0.352588903709851       -0.027470706884866        0.000000000000000
Se         34.784693931659220        2.794096852285249        8.322206164559599        0.167445225042345        0.017938337657241        0.078510984085732
Se         34.784693931659220        2.794096852285249       11.677786431425980        0.167445225042345        0.017938337657241       -0.078510984085732
Mo         38.118026030990151        0.871194477283997        9.999996297992791       -0.263954453515730       -0.025190651583165        0.000000000000000
Se         38.099947071264516        2.782768291446596        8.325307842726396        0.121114696715698        0.016997313479949        0.043540108819502
Se         38.099947071264516        2.782768291446596       11.674690064351937        0.121114696715698        0.016997313479949       -0.043540108819502
Mo         41.428435454006205        0.862919794777377        9.999996297992791       -0.159421836933990       -0.020300154075986        0.000000000000000
Se         41.418264711387351        2.776315313753692        8.328738808643774        0.066475130591906        0.014669435638090        0.005159949238819
Se         41.418264711387351        2.776315313753692       11.671259098434557        0.066475130591906        0.014669435638090       -0.005159949238819
Mo         44.741335779522650        0.859733139126560        9.999996297992791       -0.043627526366026       -0.016519859409667        0.000000000000000
Se         44.739715896233491        2.775146873348393        8.332275996416181        0.009524398804266        0.012162866046718       -0.034838206283858
Se         44.739715896233491        2.775146873348393       11.667716599569399        0.009524398804266        0.012162866046718        0.034838206283858
Mo         48.057125339495833        0.861831020763348        9.999996297992791        0.072343933288865       -0.000153237816849        0.000000000000000
Se         48.064173159576889        2.779342636621968        8.335706962333560       -0.049701246076456        0.014481745023493       -0.076384423711310
Se         48.064173159576889        2.779342636621968       11.664296255837524       -0.049701246076456        0.014481745023493        0.076384423711310
Mo         51.376053755285078        0.869085973461707        9.999996297992791        0.360959390899995        0.076284407753669        0.000000000000000
Se         51.391333769130739        2.788626426751347        8.338803329407602        0.385740465566650        0.410075453635600        0.268190090755269
Se         51.391333769130739        2.788626426751347       11.661189266577978        0.385740465566650        0.410075453635600       -0.268190090755269
