# total energy = -9523.941315579968 eV 

 CRYSTAL
 PRIMVEC
        6.107710890233100        0.000000000000000        0.000000000000000
       -3.053855445116550        5.289430323714121        0.000000000000000
        0.000000000000000        0.000000000000000       20.000047449589029
 PRIMCOORD
12 1
Se          3.027371799925410        5.284320002012262        8.468887789432868        0.249799752960411        0.011645045638776       -6.033144084879559
Se         -0.008659512500172        5.269735399177475        8.448055609128462       -0.366317572281080       -0.099829809689158       -5.017617789341033
Se          4.554059489445699        2.624525512738305        8.426025706718479        0.339240501466004        0.263199577290449       -4.949325145112712
Se          1.492894335935718        2.638835879354122        8.440364779575480       -0.173760628557872        0.001202505485573       -4.860078514982490
Se          3.022840489215946        5.275616513993680       11.567107203371716        0.149174186487450       -0.120551624871909        4.336619161069121
Se         -0.019868994297017        5.278253823556082       11.522622301873792       -0.033905666750787        0.406461252307677        5.549206975081172
Se          4.561060758439173        2.625273707322359       11.512884778401494       -0.618634436360532       -0.011708037694360        5.861279902860405
Se          1.487052921240299        2.640064750785236       11.545714335207585        0.689999293128324       -0.118217833490138        4.892566731927427
Mo          1.500055626954516        0.871881226520576        9.988733621213918        0.107375743727232        0.132611389635814        0.402126627552221
Mo          4.565199343338395        0.873177282771484        9.980304980185396       -0.172182484732676       -0.201962557508373        0.563541841657398
Mo         -0.035146822317846        3.513477180425994       10.024863784985092        0.374372584972443       -0.043472745886592       -1.973651144703950
Mo          3.037867901090276        3.518144693088311        9.966541253694256       -0.545161531169347       -0.219377675438622        1.228474924651139
