# total energy = -9520.148126280415 eV 

 CRYSTAL
 PRIMVEC
        8.099322384569499        0.000000000000000        0.000000000000000
       -4.049661192284749        7.014215668096800        0.000000000000000
        0.000000000000000        0.000000000000000       19.999964538468078
 PRIMCOORD
12 1
Se          3.945835978636953        6.992371795625616        8.535649080071027        0.223504812076298       -0.071249928405155       -0.655577605742612
Se         -0.054490621138907        7.021757757101311        8.507060091917973        0.051356780141370       -0.155914850655775        0.107983295675576
Se          6.091806519820857        3.516470650724962        8.683200915408637       -0.173855759417325       -0.137464091909642       -1.075174372857306
Se          1.980775141963747        3.447189047047355        8.646012876679887        0.002904319428058        0.312510786843148       -0.249238738000069
Se          3.997070672177263        7.040331933125844       11.282157648306889        0.147778333957800       -0.181773218028128        1.186962388690142
Se         -0.064418770517912        7.049693939870169       11.499083419597293        0.143406171079424       -0.092132951828114       -0.645832349078156
Se          5.957893943378862        3.545934365695549       11.298632479969344       -0.061056014038685       -0.116075846489859        1.005912679414719
Se          1.935807704084617        3.484646793211512       11.560430927066975        0.148256302248943        0.149943460896865       -0.574285972346111
Mo          2.024497713992369        1.158141546143316        9.924601065868611       -0.258572875085429       -0.135182236834924        0.278661427276739
Mo          6.101190394735619        1.117782622701006        9.953375528504271       -0.761929021512922       -0.013871621970839        0.088987977036683
Mo         -0.110503914886112        4.683374043823905        9.824707263306285        0.891684685592128        0.491828343145232        0.434967600008427
Mo          3.965287311275735        4.725467842120990       10.180035065436448       -0.353477477359229       -0.050617587652377        0.096633927032398
