# total energy = -9428.539155318405 eV 

 CRYSTAL
 PRIMVEC
        4.381587621720000        0.000000000000000        0.000000000000000
       -2.190793810860000        3.794564420100063        0.000000000000000
        0.000000000000000        0.000000000000000       19.999905673320075
 PRIMCOORD
12 1
Se          2.169413854059817        3.788911733909281        8.133605511536874        0.250734349376929        0.232118782844555      -11.377177450280172
Se         -0.021242813107623        3.784536718668994        8.090587522425590       -0.055045029273407       -0.420261911799572      -11.678219569240177
Se          3.258448256104317        1.894017050954326        8.121488230969009        0.862212888223145       -0.008072239090237      -11.397954287095146
Se          1.089496221379830        1.881063325309473        8.107376013556973       -0.949077390210578        0.148949729081227      -11.339704890520757
Se          2.173570666236543        3.781532702195543       11.906122659041968       -0.066178168044154       -0.135436776161569       11.403133776726717
Se         -0.013068523240542        3.787297118870678       11.900424842498682        0.079980884419497       -0.109295587315166       11.510112027727695
Se          3.271797200952649        1.885252999393361       11.884758475957224       -0.132100768319939       -0.022029993055445       11.049039234333200
Se          1.077508197646804        1.883838622909070       11.899885030903686        0.199767862869748        0.240298494094931       11.587647791948816
Mo          1.071823087707622        0.626937712218757       10.027182212935218        0.397236130045042        0.305895849675559        0.404659422407550
Mo          3.267806450946787        0.627812277108053        9.983740524300911       -0.639934750012930       -0.314303617878191       -0.281561118717040
Mo         -0.023795964214799        2.522998335639853       10.007384009266476        0.544316409182801        0.327984206798831       -0.161633243750627
Mo          2.175224715563742        2.527113084575410       10.001107823157122       -0.491912675366585       -0.245846937194922        0.281658049349510
