# total energy = -9526.07957062511 eV 

 CRYSTAL
 PRIMVEC
        6.373252033781299        0.000000000000000        0.000000000000000
       -3.186626016890650        5.519395592555450        0.000000000000000
        0.000000000000000        0.000000000000000       20.000010552493670
 PRIMCOORD
12 1
Se          3.174540419058990        5.497620102331629        8.487162222630440       -0.094370326798277       -0.143180428121046       -4.900343036911635
Se         -0.031269723778545        5.500272012502886        8.483933533150127        0.058351469415478       -0.003955386869799       -4.647931299083161
Se          4.757862717616160        2.756722762228356        8.525859971654357        0.047792201126621        0.059535205839591       -5.362279978464568
Se          1.574438622547282        2.753736893650529        8.498918323331953       -0.006810341095114        0.172631142434691       -4.777707274886412
Se          3.173053539359509        5.496091159168725       11.474303538888124       -0.173460837795380        0.436352911010408        5.308106553552095
Se         -0.031905774331516        5.506987508170881       11.483085242865473        0.149820819221300        0.340263543870771        4.872493606361973
Se          4.751043337940014        2.737079124809835       11.470103565797864        0.233964835738806       -0.207864784561356        5.478893699975982
Se          1.565496312618683        2.751060765121545       11.521695678336526        0.053170694231752       -0.223064124797642        4.544810990098652
Mo          1.561021652365765        0.915128248953420        9.982657921536086        0.393733257533722        0.067495859002794        0.286455729991115
Mo          4.765379331064801        0.901000661170137        9.974801613754044       -0.310067723528221       -0.323477832275497        0.298602398080682
Mo         -0.015792281214507        3.670144891612332       10.010081387712242        0.099992303481521       -0.022556812328471       -0.398933315999770
Mo          3.164374444739906        3.667403118587400       10.015493553339329       -0.452116351532207       -0.152179036094011       -0.702168329825384
