# total energy = -9526.644176073853 eV 

 CRYSTAL
 PRIMVEC
        6.107710890233100        0.000000000000000        0.000000000000000
       -3.053855445116550        5.289430323714121        0.000000000000000
        0.000000000000000        0.000000000000000       20.000047449589029
 PRIMCOORD
12 1
Se          3.042716812766032        5.267054724867752        8.400321405436934       -0.169079418941490        0.036520736944022       -3.162328459968556
Se         -0.022261995423811        5.281454874833654        8.378824095416581        0.044655710979412        0.222996247643871       -2.839035232982484
Se          4.544273104286279        2.639191958899022        8.366902454529933        0.007387296902175       -0.301061402242328       -2.554166645681649
Se          1.502196990392632        2.640216222015314        8.349556555601673        0.265829045667817       -0.255498605662510       -2.487572730070642
Se          3.024523774337295        5.268499809264380       11.644094899143104        0.138064444765920        0.066867223999111        3.216498285334995
Se         -0.034872586098875        5.277467150393420       11.605197331567565        0.193131585536390       -0.286249527425490        3.390668233698946
Se          4.563719444989692        2.631885915132126       11.664465336504209        0.204476583302242        0.036884033982960        2.342320506096967
Se          1.505617919262252        2.636911950423698       11.613397544208793       -0.321875520069791       -0.013672104276418        3.494226915968233
Mo          1.495212212218562        0.870439195979392       10.020190164611886        0.142624812479754        0.186195774550970       -0.825497775793322
Mo          4.571238037095569        0.861078518269021       10.020785666423683       -0.351720384674088        0.604337039516033       -0.532242760455624
Mo         -0.015074441248184        3.508558640846090        9.976170059912709       -0.521907178241698       -0.076443301999998        0.694191478705032
Mo          3.027448757082627        3.510003114471630       10.027483382185913        0.368413022293356       -0.220876372140654       -0.737062071962328
