# total energy = -38122.643335448 eV 

 CRYSTAL
 PRIMVEC
       13.277745107833699        0.000000000000000        0.000000000000000
       -6.638872553916849       11.498859207011680        0.000000000000000
        0.000000000000000        0.000000000000000       20.000015178772852
 PRIMCOORD
48 1
Mo          1.665949384258319        0.961829233415387       10.000007589386426       -0.212890007934355       -0.122912155738499        0.000000000000000
Se          1.634200967930977        2.859975840795969        8.289849952791576       -0.015942646492175       -0.009233864017288        0.300116264298140
Se          1.634200967930977        2.859975840795969       11.710167881530298       -0.015942646492175       -0.009233864017288       -0.300116264298140
Mo          0.006231245779106        3.836543371281051       10.000007589386426       -0.212841671173336       -0.122888758689282        0.000000000000000
Se         -0.025517170548235        5.734691306436145        8.289849952791576       -0.015968357535270       -0.009217666060138        0.300105465660040
Se         -0.025517170548235        5.734691306436145       11.710167881530298       -0.015968357535270       -0.009217666060138       -0.300105465660040
Mo         -1.653486892700106        6.711258836921226       10.000007589386426       -0.212852726921867       -0.122890558462299        0.000000000000000
Se         -1.685235309027447        8.609406772076319        8.289849952791576       -0.015966814872684       -0.009220237164447        0.300105465660040
Se         -1.685235309027447        8.609406772076319       11.710167881530298       -0.015966814872684       -0.009220237164447       -0.300105465660040
Mo         -3.313205031179318        9.585972974786891       10.000007589386426       -0.212845527829800       -0.122881816707646        0.000000000000000
Se         -3.344953447506659       11.484118254392962        8.289849952791576       -0.015968100424839       -0.009189898133595        0.300116264298140
Se         -3.344953447506659       11.484118254392962       11.710167881530298       -0.015968100424839       -0.009189898133595       -0.300116264298140
Mo          4.923192703131650        0.925920899545761       10.000007589386426        0.214229553279627        0.123651605337923        0.000000000000000
Se          4.955162857802292        2.860857483071129        8.371178797126078        0.015272359598677        0.008817602229573       -0.333120758988433
Se          4.955162857802292        2.860857483071129       11.628837709421285        0.015272359598677        0.008817602229573        0.333120758988433
Mo          3.263474564652438        3.800636365185937       10.000007589386426        0.214200242690498        0.123702513203252        0.000000000000000
Se          3.295444719323080        5.735571620936793        8.371178797126078        0.015305526844270        0.008803461155870       -0.333112017233781
Se          3.295444719323080        5.735571620936793       11.628837709421285        0.015305526844270        0.008803461155870        0.333112017233781
Mo          1.603756426173226        6.675350503051601       10.000007589386426        0.214225182402300        0.123699942098942        0.000000000000000
Se          1.635726580843868        8.610287086576967        8.371178797126078        0.015272359598677        0.008817345119142       -0.333120758988433
Se          1.635726580843868        8.610287086576967       11.628837709421285        0.015272359598677        0.008817345119142        0.333120758988433
Mo         -0.055961712305987        9.550065968691777       10.000007589386426        0.214240094807296        0.123674488166278        0.000000000000000
Se         -0.023991557635345       11.484998568893610        8.371178797126078        0.015276987586434        0.008853083469045       -0.333112017233781
Se         -0.023991557635345       11.484998568893610       11.628837709421285        0.015276987586434        0.008853083469045        0.333112017233781
Mo          8.304821938175168        0.961829233415387       10.000007589386426       -0.212855812247038       -0.122926811033063        0.000000000000000
Se          8.273073521847827        2.859975840795969        8.289849952791576       -0.015962186884927       -0.009222808268757        0.300107779653919
Se          8.273073521847827        2.859975840795969       11.710167881530298       -0.015962186884927       -0.009222808268757       -0.300107779653919
Mo          6.645103799695955        3.836543371281051       10.000007589386426       -0.212859154682641       -0.122894158008332        0.000000000000000
Se          6.613355383368615        5.734691306436145        8.289849952791576       -0.015968100424839       -0.009212266741088        0.300107779653919
Se          6.613355383368615        5.734691306436145       11.710167881530298       -0.015968100424839       -0.009212266741088       -0.300107779653919
Mo          4.985385661216744        6.711258836921226       10.000007589386426       -0.212885637057029       -0.122875131836441        0.000000000000000
Se          4.953637244889403        8.609406772076319        8.289849952791576       -0.015939818277434       -0.009230521581685        0.300119092512881
Se          4.953637244889403        8.609406772076319       11.710167881530298       -0.015939818277434       -0.009230521581685       -0.300119092512881
Mo          3.325667522737531        9.585972974786891       10.000007589386426       -0.212849127375834       -0.122888501578851        0.000000000000000
Se          3.293919106410190       11.484118254392962        8.289849952791576       -0.015963729547513       -0.009189126802302        0.300119092512881
Se          3.293919106410190       11.484118254392962       11.710167881530298       -0.015963729547513       -0.009189126802302       -0.300119092512881
Mo         11.562067912597522        0.925920899545761       10.000007589386426        0.214199728469636        0.123651605337923        0.000000000000000
Se         11.594038067268162        2.860857483071129        8.371178797126078        0.015262589402301        0.008818373560866       -0.333121273209295
Se         11.594038067268162        2.860857483071129       11.628837709421285        0.015262589402301        0.008818373560866        0.333121273209295
Mo          9.902347118569287        3.800636365185937       10.000007589386426        0.214244722795053        0.123671917061968        0.000000000000000
Se          9.934318601014439        5.735571620936793        8.371178797126078        0.015275187813418        0.008819144892159       -0.333122301651019
Se          9.934318601014439        5.735571620936793       11.628837709421285        0.015275187813418        0.008819144892159        0.333122301651019
Mo          8.242628980090075        6.675350503051601       10.000007589386426        0.214225439512731        0.123705598528423        0.000000000000000
Se          8.274600462535227        8.610287086576967        8.371178797126078        0.015268245831782        0.008808603364490       -0.333121273209295
Se          8.274600462535227        8.610287086576967       11.628837709421285        0.015268245831782        0.008808603364490        0.333121273209295
Mo          6.582910841610863        9.550065968691777       10.000007589386426        0.214185330285502        0.123676545049726        0.000000000000000
Se          6.614882324056016       11.484998568893610        8.371178797126078        0.015310669052889        0.008839713726635       -0.333111760123350
Se          6.614882324056016       11.484998568893610       11.628837709421285        0.015310669052889        0.008839713726635        0.333111760123350
