# total energy = -9270.386866721172 eV 

 CRYSTAL
 PRIMVEC
        3.850505334623600        0.000000000000000        0.000000000000000
       -1.925252667311800        3.334633882417403        0.000000000000000
        0.000000000000000        0.000000000000000       20.000006021201802
 PRIMCOORD
12 1
Se          1.909190284308417        3.327370674204702        8.251178572468890       -0.356048067447909        0.094846752426835      -27.075724327748713
Se         -0.012296973836654        3.323871720007130        8.224793369713915        0.165536437202942        0.066288211308602      -27.553460448173343
Se          2.869555216181293        1.662378283066513        8.281110475687585        0.399616715525246       -0.215989217069077      -26.031751848350279
Se          0.951179166346597        1.664254634316075        8.229607271483260       -0.418315328726818        0.006912156825772      -27.423083091072094
Se          1.910863713926845        3.320209889433903       11.724243897424012        0.876699775455257        1.382618284437640       31.150718198696119
Se         -0.015631126405905        3.324974119684433       11.698526372294060       -0.975358961352281        0.303829710252411       31.283367383565285
Se          2.872930954208158        1.653726967680681       11.729605726102474        0.730889107625550       -0.034221141249568       32.030552664525565
Se          0.950892688749701        1.659985579051578       11.717484335309079       -0.906231993775514       -1.556316692271221       31.562563086317542
Mo          0.946837336531276        0.552058886391523        9.972987480122649       -0.710698996814012       -0.702683064908155       -4.139340384281441
Mo          2.867114380849675        0.552925635142347       10.021175014183330        1.136234757773317        0.010686280841748       -4.332015341692457
Mo         -0.011494913575452        2.218390483285094       10.024011681463348       -1.230516124362484       -0.170808486589657       -5.043715783635035
Mo          1.903309792561380        2.218065885685385       10.034606346891564        1.288192164675845        0.814837463105100       -4.428109851040713
