# total energy = -9512.36567365351 eV 

 CRYSTAL
 PRIMVEC
        8.630457589390799        0.000000000000000        0.000000000000000
       -4.315228794695400        7.474192033852167        0.000000000000000
        0.000000000000000        0.000000000000000       20.000041178044860
 PRIMCOORD
12 1
Se          4.294022897352508        7.445581203897578        8.873203017824558        0.000343242425324        0.031134273415532       -3.389166965892605
Se         -0.029550686786074        7.460339286375436        8.936562659171312        0.051860459475609       -0.003101523128600       -4.888636541879862
Se          6.431435119574961        3.729531420848982        8.877099669426169        0.018995575749324        0.004502517866869       -2.812008812922306
Se          2.138163935078490        3.717264951477181        8.902344620920895       -0.063022394614622       -0.036441546931288       -3.821571432014850
Se          4.272600375524122        7.452876529697889       11.085142693514436        0.017069304400616        0.063052733645475        3.310760882862703
Se         -0.031796331850834        7.456552241585211       11.076147167569015       -0.055643839467100       -0.019568932010352        4.882556394408657
Se          6.434900248297102        3.705660438202486       11.126795870978116        0.055786278645848       -0.012031225506069        2.817082115945893
Se          2.136865914257045        3.718568150573180       11.090141454550212       -0.051786411671494       -0.068709677347328        3.781111249047749
Mo          2.137099799657718        1.216817709031557       10.018546729283816       -0.153602142329342        0.031606842387626        0.106074250725742
Mo          6.442259439483575        1.232849647049609        9.976865071310094        0.143376089159002        0.117868163304040       -0.026525826051110
Mo         -0.021713368249148        4.970219249481277       10.011811520181055       -0.133805410477165       -0.138633430149622        0.051492277338483
Mo          4.280842462521989        4.964410951523616        9.995438679088222        0.170429505814430        0.030321804453717       -0.011167848678925
