# total energy = -8969.943565796682 eV 

 CRYSTAL
 PRIMVEC
        3.850505334623600        0.000000000000000        0.000000000000000
       -1.925252667311800        3.334633882417403        0.000000000000000
        0.000000000000000        0.000000000000000       20.000006021201802
 PRIMCOORD
12 1
Se          1.913514401799200        3.321702730352136        8.822202737835566       -4.562898708916277       -2.103747222993739     -118.729602032755650
Se         -0.014551444710076        3.326613664855916        8.832035003207528        2.939232967698337       -0.799595185426845     -122.620559856772104
Se          2.866490598985466        1.658204720334315        8.860673136633791        0.413400919949561       -0.975534053555761     -123.908656633478060
Se          0.940906788214889        1.659059147468068        8.794797151166916        1.615027859179604        3.864575208475381     -115.592011195790931
Se          1.907197262747216        3.330545030802566       11.202689484394444        4.892914345230077        2.126345944322455      114.741203212064036
Se         -0.008828438631225        3.324943700692289       11.149422748746861       -6.718309959016376        1.740508291012904      125.122705348958803
Se          2.867752409583622        1.660303245741684       11.153141181748508        3.555687107604378        0.475923491886408      126.871787758623157
Se          0.950851873393154        1.663692075486687       11.162232994944620       -2.043687511875001       -4.858542794378400      122.728232305936643
Mo          0.943795437316923        0.553767355608495        9.972251648553202       -4.104175647750272        0.218483445359763        9.463411695822773
Mo          2.869588715577704        0.543509609397058       10.013157106925043        7.943481271740184       -3.833922502897026       -5.524842933533525
Mo         -0.010200758732485        2.219768964194889       10.003068782948331        3.514610373823848       -3.321661850914297       -4.911452521522733
Mo          1.913604503624030        2.211510015302655       10.016665687385952       -7.445282760557632        7.467167486219588       -7.640215147552424
