# total energy = -9529.012162650553 eV 

 CRYSTAL
 PRIMVEC
        6.506022605555400        0.000000000000000        0.000000000000000
       -3.253011302777700        5.634378226976116        0.000000000000000
        0.000000000000000        0.000000000000000       19.999994935150113
 PRIMCOORD
12 1
Se          3.291960908310379        5.584035274656588        8.270296538628189       -0.081862675663650        1.061391968206008        0.074504946461035
Se          0.008839082311908        5.596524235650213        8.393748317568603       -0.926759176362033        0.716512006547455       -0.807737872775163
Se          4.870560763447743        2.836473615093185        8.249112278422240       -0.111726823550269       -0.261092043087918       -0.198493366463508
Se          1.672309351736481        2.769747847250609        8.277263187634217       -1.067626124825354       -0.527591632759663       -0.250887844304209
Se          3.263219252245817        5.566113784787325       11.541394584249334       -1.984372649674738       -0.103673096411061        2.984667209062678
Se         -0.055505481257035        5.668652604664442       11.832731023514802        0.805201478373800       -0.517692366947066       -0.913326184786401
Se          4.891698180290932        2.767693245311774       11.574897998258901       -0.631261386735122        0.542568829583605        0.824844972409129
Se          1.598732091487995        2.852500551179709       11.501824954762345       -0.116832522488157        1.256938334909919        3.971709011287085
Mo          1.578153541986623        0.958188792482904       10.198286072740391        1.910148724914736       -1.395810877760329       -6.075975854461782
Mo          4.873409750746716        0.953021709329572        9.920568039992872        0.104844234424057       -0.802617261432280        0.767059660162612
Mo         -0.017169393656061        3.723642664813846        9.939371095925187       -0.238362709660277        0.747620826030323        0.201930418704503
Mo          3.174042501595990        3.757520175123233        9.918933727114357        2.338609631247006       -0.716554686878993       -0.578295095295979
