# total energy = -9514.060782132887 eV 

 CRYSTAL
 PRIMVEC
        7.833781241021299        0.000000000000000        0.000000000000000
       -3.916890620510650        6.784250399255471        0.000000000000000
        0.000000000000000        0.000000000000000       19.999996028483224
 PRIMCOORD
12 1
Se          3.776285214528055        6.825650366358020        7.942428736431148        0.301295886955358       -0.257675816791830        3.582583686896923
Se         -0.012192497123526        6.828136808523920        7.923201503753185       -0.257560117097900       -0.044601974899342        3.579269019221063
Se          5.768769871031865        3.435688073730931        7.875132638680154       -0.178428468431845        0.239165922646578        3.573072914945497
Se          1.902442391541388        3.402657718506288        7.877858794552030        0.160455163755995        0.027481762633397        3.686518778837126
Se          3.844728177852734        6.832410919569021       11.868856202224617        0.029129326274952       -0.019752251747623       -3.105274626898103
Se          0.009824345054365        6.728144074629152       11.842692156257728       -0.155623030316642        0.066279983774811       -2.813426519838587
Se          5.937254921073131        3.320641162425292       11.865377219975480       -0.118821528782018        0.148464047477154       -2.926889867239520
Se          1.964735053213741        3.412641872697970       12.215880960529999       -0.247444878523302        0.005591637652391       -3.546478954630185
Mo          1.872825998181582        1.082986571311858        9.991062019979978        0.054523866429863       -0.007173381023621       -0.383658899517645
Mo          5.774785431646845        1.150054706028738       10.146098817764782        0.371515316753249       -0.205170781465819       -0.785538186835288
Mo         -0.043971014105853        4.548276937596360       10.094521985452023        0.073316067828303       -0.024186121129427       -0.393155016174506
Mo          3.905725132107822        4.571016054404673        9.878226585118680       -0.032357604846012        0.071576715762898       -0.467022328766775
