# total energy = -9527.16572928432 eV 

 CRYSTAL
 PRIMVEC
        7.169928382150800        0.000000000000000        0.000000000000000
       -3.584964191075400        6.209337227152147        0.000000000000000
        0.000000000000000        0.000000000000000       20.000070686449963
 PRIMCOORD
12 1
Se          3.527188908172028        6.159993063033347        8.510033884316430        0.959390603817011        0.377672083132877       -1.134722177108013
Se         -0.046799556535975        6.188178051503581        8.189581105204581        0.093523919259576       -0.075001169592777        1.932877287011084
Se          5.343086555820157        3.048305806563986        8.366366444359084        0.445702731832056        1.015228304549050       -0.126681651766718
Se          1.754373209193730        3.101870190528520        8.262503578808085        0.121124466912075       -0.367240341617774        1.405176382318265
Se          3.502428277497109        6.246694705001667       11.643043073808631       -0.126773183080137       -0.324778553945694       -0.894540411148736
Se         -0.079442089481393        6.222652501150638       11.642612878105702        1.352355872493473       -0.581179874331284       -0.542595826178855
Se          5.254925116433230        3.134979485811616       11.860251752188860        0.486025360718597       -0.125370388568852       -2.689457126008004
Se          1.819706313604726        3.069854309323702       11.609958156282033        0.010839261548166        0.244294247302389       -0.419281292615913
Mo          1.828307359691955        0.963575996184143       10.175209599472012       -1.107119058351205        0.738403159970185       -2.640732899569174
Mo          5.340308925564912        1.079099316263033        9.807572238670069       -0.994607533765664       -0.936831220384231        3.157648793014759
Mo          0.059136852303142        4.099440251158115       10.005758380059614       -1.081974172424750        0.254121007973458       -0.159981309231746
Mo          3.554375842611468        4.088366296771884        9.896873696669756       -0.158487754738333       -0.219317511597778        2.112290231283052
