# total energy = -9511.01091511268 eV 

 CRYSTAL
 PRIMVEC
        7.568240097473099        0.000000000000000        0.000000000000000
       -3.784120048736550        6.554285130414141        0.000000000000000
        0.000000000000000        0.000000000000000       20.000020487584848
 PRIMCOORD
12 1
Se          3.748021813943632        6.538575734443816        8.951268617949442        0.216318061310267       -0.126255362672196      -10.382304578549764
Se         -0.026534249781741        6.529923722364384        8.926569666391337        0.202435383590897        0.061771295257599       -8.790183716105590
Se          5.662897811733759        3.256712101063942        8.998675317096003       -0.262823167619532       -0.168388306103085      -10.451570385759245
Se          1.862227535552055        3.256407857812023        8.936082944193862       -0.109171917197877        0.176786561219772       -8.734958966640944
Se          3.749605089772023        6.548085984950300       11.020973401181644        0.267174504553000       -0.081720750705764       10.325094422337290
Se         -0.043867790076983        6.539067670050152       11.069032482624607        0.233297891280911        0.140334986981677        8.715731477282899
Se          5.655568728023366        3.267340937456833       11.058142541948353       -0.295417571172453       -0.276557235509811       10.569744510476122
Se          1.861638726472472        3.249769754422529       11.067781452536495       -0.070277279644856        0.074779026180432        8.619052813035514
Mo          1.873402798879984        1.072872202569767       10.006720245462844        0.233635220166323       -0.122330314833250        0.116359696405632
Mo          5.660566036959728        1.063414172919955        9.994527810665815       -1.127377303426946       -0.104454197900300       -0.061307725150589
Mo         -0.046325954460643        4.361103753167654       10.022122370885212        0.988954446720275        0.519665689504639        0.080746302172447
Mo          3.755163962123618        4.355882424324409       10.009145109590076       -0.276748268560010       -0.093631134309284       -0.006403335282913
