# total energy = -9529.197676207625 eV 

 CRYSTAL
 PRIMVEC
        6.705204922078999        0.000000000000000        0.000000000000000
       -3.352602461039500        5.806875092643465        0.000000000000000
        0.000000000000000        0.000000000000000       20.000050559404965
 PRIMCOORD
12 1
Se          3.384297964706167        5.802214975222620        8.364209405981754       -0.687101915681901        0.700339503330007        0.128795613730023
Se          0.017760076277111        5.790759132613249        8.240276432886475        0.025894105722256        0.198439116162577        1.531576498163088
Se          4.961066462842084        2.938953005232508        8.356968455186401        0.298418564122550       -0.491950213489505        0.527315753267250
Se          1.656921847253957        2.882145168091671        8.310903026851227       -0.321896346014698        0.003852799807848        0.377446083064069
Se          3.361226025089785        5.738269447442230       11.539698572647982        0.053613695504286        0.769314518642080        3.046077264164786
Se         -0.004461643355151        5.741934512452638       11.553745306439245       -0.839456301089823        0.135527536143696        3.457720577208344
Se          4.907998789006782        2.938928195974297       11.491944103192935        0.706030128498316        0.485771078502383        3.021895771023117
Se          1.675245831265014        2.858674268782425       11.600889602246383       -0.391927313866700        0.472383338362600        1.630126669237387
Mo          1.688914391498673        0.965275936418555       10.046023655988437        0.124885992516934       -0.285271479346140       -2.914410241141867
Mo          4.968569587149890        0.940618886358594       10.177311568362743        1.000389690247393        0.302385520961742       -5.800901374807284
Mo          0.003910475510556        3.893725908661119       10.028199880264566       -0.320902614199061       -1.072107559636885       -2.874016649776383
Mo          3.253094537913879        3.913577338353426        9.981807237929194        0.352052314240450       -1.218684416550835       -2.131626221242961
