# total energy = -9514.137920454414 eV 

 CRYSTAL
 PRIMVEC
        7.037104892651799        0.000000000000000        0.000000000000000
       -3.518552446325899        6.094308764658774        0.000000000000000
        0.000000000000000        0.000000000000000       19.999937665154004
 PRIMCOORD
12 1
Se          3.487679963451347        6.081698272691142        8.825375395393452       -0.088570686807244       -0.032117977924363       -8.832614136305093
Se         -0.027472153790423        6.077259970635347        8.811949302968763       -0.207261346379907        0.112881249385253       -8.859138419693616
Se          5.267431347009956        3.027839640530526        8.860392029339289       -0.457914191750224        0.250055834949641       -9.436075714803726
Se          1.738230353560496        3.029194986932850        8.870881537892275       -0.285830180312603        0.200415009824459       -9.340162211198862
Se          3.498196916713415        6.086857174287945       11.193478711422490       -0.294189354643785       -0.086558540574597        8.895893384240237
Se         -0.008931493529754        6.071227764321366       11.143938196688710       -0.346762267123568        0.162850661641194        9.166873123171360
Se          5.240753682361913        3.037834440609559       11.165181808938648       -0.098191502023118        0.047153795926562        9.451241630683988
Se          1.729646493012439        3.020088973201759       11.199852921034253       -0.196208940284480        0.298483613061581        9.140305902340865
Mo          1.716439254549911        1.009819626122108       10.016149247856678        0.446621387401855       -0.651850790045931        0.187235529133749
Mo          5.243868304987401        1.010617633816935       10.009397145712178        0.490097989944911       -0.536548588842814        0.197995343558750
Mo         -0.040628021387236        4.049808124539308       10.006637193173280        0.728152681308905       -0.093249068208886        0.100160453703365
Mo          3.475874516283434        4.051803847486864        9.985834807400112        0.310056410669259        0.328484800807899       -0.671714627720588
