# total energy = -9528.935157800925 eV 

 CRYSTAL
 PRIMVEC
        6.240481462007200        0.000000000000000        0.000000000000000
       -3.120240731003600        5.404412958134786        0.000000000000000
        0.000000000000000        0.000000000000000       20.000031670846408
 PRIMCOORD
12 1
Se          3.102690624987997        5.393161370058786        8.311080075630796        0.147440233741095       -0.199451874150105       -0.869099076895390
Se         -0.036154853398285        5.393069634981295        8.312347517415731       -0.083509725084343        0.038817247313305       -1.265564904089293
Se          4.672665958814599        2.680721749489994        8.330749449150897       -0.366202643918443        0.347726174129215       -1.599089840675187
Se          1.540124614801236        2.684726266444164        8.326975205962675        0.241443921064832        0.030327717993629       -1.189556890048900
Se          3.083831890009811        5.392446210883239       11.651850060779537       -0.104875859007064        0.215668600361677        1.650258930201960
Se         -0.030629531111824        5.385856886507506       11.662089442762399        0.320893101113115        0.020597887955031        1.392946410449068
Se          4.666519084574522        2.691959608506777       11.651444429484508        0.154575819531366       -0.241935516208816        1.644690432488355
Se          1.541367094660322        2.689985120172198       11.670454184114075       -0.227337557270532        0.105100830634149        1.656419296127622
Mo          1.542685708393244        0.896644233375972       10.026242082815434       -0.256617807368453       -0.255206013992084       -1.049311377497196
Mo          4.648845417025971        0.894475042019779        9.961181319285132        0.102654939104482       -0.405013206360543        0.764982722101365
Mo         -0.019002266051812        3.589630401083249        9.978986660992531        0.134863419900541        0.112761693034860        0.346832972492081
Mo          3.102144582860071        3.582871335611749       10.034770324781412       -0.063327584696165        0.230606459289683       -1.483508160433622
