# total energy = -9490.263054693423 eV 

 CRYSTAL
 PRIMVEC
        5.178263970089500        0.000000000000000        0.000000000000000
       -2.589131985044750        4.484506054696759        0.000000000000000
        0.000000000000000        0.000000000000000       19.999998575148734
 PRIMCOORD
12 1
Se          2.566225416546662        4.480587144524195        8.401864819375053       -0.160265673368381       -0.660655536753956      -11.968955930796248
Se         -0.018880986087740        4.471089690576654        8.386186589552814        0.188426721760360       -0.106159611388819      -12.005982146847527
Se          3.865161863859792        2.238631349527699        8.365402073629669       -0.599659943666546        0.053663060707029      -10.500548123082996
Se          1.272461537113254        2.222694206506954        8.351816898104138        0.491088122214515        0.499431612809409      -10.308740913376450
Se          2.566393710125690        4.472871531208762       11.649716514485331        0.233620307761327        0.736746340353117        9.656592389451475
Se         -0.012594573628052        4.467760584670283       11.632648956439915       -0.341435453215060        0.080795410264760        9.995800237892748
Se          3.857546708865379        2.236842259326033       11.650024621191552        0.519424519920405       -0.292854694396702        9.680066571797591
Se          1.280586751108721        2.238130611401791       11.601237607197351       -0.687681185482841       -0.766221994378564       11.514095953855330
Mo          1.280916088697219        0.732479419881879        9.975573416427455       -0.352320994640797        0.171593958956222        2.353112459325837
Mo          3.856972957217493        0.736931173416965        9.986307439811053        0.379506051836874        0.833007457260631        1.972221096486982
Mo         -0.017239994235619        2.973979527649008        9.983724003916377       -0.617038809026030       -0.255929522744789        1.105924780399423
Mo          2.561279656628829        2.983454197235080       10.022166917803922        0.946336335906175       -0.293416223577906       -1.493585603774870
