# total energy = -9525.638846553882 eV 

 CRYSTAL
 PRIMVEC
        6.373252033781299        0.000000000000000        0.000000000000000
       -3.186626016890650        5.519395592555450        0.000000000000000
        0.000000000000000        0.000000000000000       20.000010552493670
 PRIMCOORD
12 1
Se          3.184151283125932        5.492674458753415        8.072782297946826       -0.061130061842800        0.200272570645711        2.380966003642394
Se         -0.014043460856437        5.555072420115354        7.988889269450553       -0.010676253534941       -0.241083452240634        2.727617456170221
Se          4.772806718984969        2.774556396069283        7.966222161267206        0.150675711404222       -0.419658730728554        2.161147898035548
Se          1.569853705034179        2.694622431736394        7.931032887487887        0.097265647361252        0.235206164899453        2.887714979316758
Se          3.204474309211254        5.532812562736966       12.111615358436984       -0.436252637942336       -0.065265940235128       -3.235785938533883
Se         -0.067685848574368        5.535858339883911       12.056152132613001        0.512318758940124       -0.200471574119269       -3.098925027695259
Se          4.706867141467859        2.789349351364892       11.954124652779807        0.351277126291123       -0.310258499467989       -2.952855706772012
Se          1.547776759989161        2.711788148764181       11.859186141183788        0.113434551032667        0.715512361191905       -2.425884224371810
Mo          1.583702144378383        0.880514479832750       10.142427064795339       -0.128907970988350       -0.218628455642821       -1.266565834996998
Mo          4.742266095239090        0.947282580114253        9.942320972089080        0.177862568373315       -0.272452210369196        0.540343538803697
Mo         -0.045638857813908        3.656693505869833        9.832267655969744        0.265332051204783        0.218586546642576        1.061381683788770
Mo          3.253401127749390        3.615029645349395        9.833389348327691       -1.031199490299061        0.358240705203086        1.220844915502143
