# total energy = -38122.12005893982 eV 

 CRYSTAL
 PRIMVEC
       13.277745107833699        0.000000000000000        0.000000000000000
       -6.638872553916849       11.498859207011680        0.000000000000000
        0.000000000000000        0.000000000000000       20.000015178772852
 PRIMCOORD
48 1
Mo          1.634851577441262        0.943875066480574        9.995774644246049        0.059919328823436        0.099594810755266        0.002252544485589
Se          1.644780675232900        2.843370692764112        8.330514374958828       -0.129011072271163        0.191849375817222       -0.047980920182942
Se          1.625148201316457        2.877462631102986       11.669498148265003        0.128326901414393       -0.190379989704318       -0.019669976409717
Mo         -0.024865233263440        3.818589204346238       10.004236551203270        0.106406437402535        0.041319703137781        1.119602283994892
Se          0.001242796942093        5.733096649248694        8.391631835690186       -0.394825462644415       -0.030562202706659       -0.728286121622570
Se         -0.050751525125673        5.737166278124244       11.730618264545383        0.308459754893034        0.013997348971576       -0.608412239846656
Mo         -1.684584699517163        6.693304669986414       10.010587296688348        0.010049161193843       -0.035385080170497        1.063274016560592
Se         -1.655266110544556        8.623838353234024        8.422255627006892       -0.508482414199857       -0.265145646142341       -1.087958417705208
Se         -1.713678894597449        8.595854177644753       11.761238072538559        0.341213052692285        0.171463346857297       -0.861670385213832
Mo         -3.344301510221865        9.568020135626588       10.011666777365614        0.003934818035322        0.026971398427953        0.458092112168444
Se         -3.326346015512541       11.507598618841655        8.407104392064342       -0.179616061512423       -0.317183511815309       -0.862967250227565
Se         -3.362033938813377       11.461527498866493       11.746088165370521        0.138855059341105        0.240225474732540       -0.721119425470154
Mo          4.954287854399686        0.943875066480574       10.007927764343249        0.029617321872903        0.099378323772403        0.098366337116167
Se          4.955182774419954        2.882116480763282        8.363205511188823       -0.032088410224803       -0.245286179345011       -0.338796471751746
Se          4.953617328271740        2.838715515329306       11.702187956720490        0.023190075319911        0.215168777683902       -0.293853054200097
Mo          3.294569715920474        3.818589204346238       10.000016883808001       -0.014698746227218       -0.011809339204156        0.043434179321948
Se          3.275549346053502        5.745336074689094        8.297877677483770        0.226031436281284       -0.083891791184741        0.312797722084093
Se          3.313814479679768        5.724926852683843       11.636868089662501       -0.253912234303523        0.092429914375866        0.359110509791004
Mo          1.634851577441262        6.693304669986414        9.992092725527646        0.095675419345801        0.000844607765684        0.129544833525823
Se          1.605462616419582        8.603463653366052        8.248834998153477        0.341717503357817        0.095684418210884        0.749397201997785
Se          1.664464932355263        8.616230205287234       11.587818771459654       -0.483577926526344       -0.150731761478170        0.929682521961981
Mo         -0.024865233263440        9.568020135626588        9.988121351965892        0.181291907301382        0.092837691519360        0.176192121903406
Se         -0.049904404987793       11.464777890868891        8.240544374108145        0.168557484766653        0.202105768018414        0.832316344422226
Se          0.000397004578724       11.504348226839259       11.579528147414322       -0.230933503757856       -0.280828096878390        1.016331822518705
Mo          8.273725459132622        0.943875066480574        9.989418587662929        0.066266614032402        0.110645417077676       -0.389877886621564
Se          8.262556219947911        2.836864597661274        8.269354425443122        0.150029850001665        0.233003499837468        0.550313509984806
Se          8.285116436660632        2.883970053980335       11.608338198749300       -0.204891559537802       -0.304397924304820        0.656666468417703
Mo          6.614007320653410        3.818589204346238        9.995766677598985       -0.007268768993505        0.028707150947325        0.016917095025491
Se          6.623916501827385        5.718075536208201        8.330455952880351       -0.103395931366492        0.184484704632971       -0.015617144686587
Se          6.604319877822734        5.752188718939247       11.669438398412018        0.107475759684873       -0.181489368112355        0.005775728720954
Mo          4.954287854399686        6.693304669986414       10.004227256781697        0.022054161435955       -0.024304906148528       -0.049874538506919
Se          4.980387917958155        8.607797509369249        8.391588019131330       -0.389200400636000       -0.025916217219318       -0.688224459823447
Se          4.928412184733540        8.611896349284038       11.730578431310061        0.306081740517139        0.008504184614240       -0.577450744640725
Mo          3.294569715920474        9.568020135626588       10.010587296688348        0.151621106458841        0.043446520622634       -0.135377126541588
Se          3.323892288216614       11.498537885580070        8.422246332585317       -0.247194452963552       -0.207456750307432       -1.049102860937692
Se          3.265471537516656       11.470577609931993       11.761238072538559        0.178336680007995        0.149401986329275       -0.857999362480668
Mo         11.593157752767514        0.943875066480574       10.011896482355979        0.084872410368400        0.078018103389593        0.658405820483107
Se         11.613598841361025        2.882781695793184        8.412249518293628       -0.219865671036573       -0.242152260302110       -0.907126738075235
Se         11.572947696938881        2.838051628073914       11.751238602697850        0.148326750507025        0.161273032036860       -0.748402698850855
Mo          9.933443597611834        3.818589204346238       10.007937058764824        0.047681129420449        0.079185641856556       -0.030354457478448
Se          9.934355778700741        5.756838585276011        8.363259949943766        0.083503040213138       -0.191561926355415       -0.363541808068499
Se          9.932754482640737        5.713425669871437       11.702247706573475       -0.071317805558927        0.176535878549592       -0.322169911513234
Mo          8.273725459132622        6.693304669986414       10.000016883808001       -0.019034656534829       -0.008387456478587        0.027167573686771
Se          8.254718367010758        8.620063490299867        8.297932116238714        0.288630370016125       -0.056262190053544        0.305260786911102
Se          8.292954289597786        8.599629040578911       11.636918545093911       -0.318236121919635        0.056303841943359        0.356136770546588
Mo          6.614007320653410        9.568020135626588        9.992098036625690        0.087953878883385        0.001191449737042        0.117886161034207
Se          6.584619687406241       11.478188413427803        8.248861553643692        0.207728773143382        0.112951183422473        0.778020020723757
Se          6.643616692243879       11.490928409858769       11.587847982498891       -0.286256726517556       -0.154391985573234        0.942888227916649
