# total energy = -38122.856107476924 eV 

 CRYSTAL
 PRIMVEC
       26.555490215667398        0.000000000000000        0.000000000000000
       -3.319436276958425        5.749422964633285        0.000000000000000
        0.000000000000000        0.000000000000000       20.000028456517960
 PRIMCOORD
48 1
Mo          1.682930292476727        0.902623767979556       10.000008917160937        0.160292412853201       -0.040569197789826        0.000000000000000
Se          1.707228566024063        2.824343684024587        8.330271392223352       -0.061365832107985       -0.100319090839264        0.020418681984656
Se          1.707228566024063        2.824343684024587       11.669749097647541       -0.061365832107985       -0.100319090839264       -0.020418681984656
Mo          0.039113581538657        3.771360264997674       10.000008917160937       -0.060504769274719        0.150946962908879        0.000000000000000
Se          0.057019948591081        5.691457640590526        8.330234214537052       -0.260006008627567       -0.016063488394723        0.055519912239380
Se          0.057019948591081        5.691457640590526       11.669780964235800       -0.260006008627567       -0.016063488394723       -0.055519912239380
Mo          5.018267996976293        0.896643471582988       10.000008917160937        0.360773757168846        0.053205404139930        0.000000000000000
Se          5.036174364028717        2.816743502724862        8.330234214537052       -0.043800047465196       -0.051999556218755        0.010657227363050
Se          5.036174364028717        2.816743502724862       11.669780964235800       -0.043800047465196       -0.051999556218755       -0.010657227363050
Mo          3.370430784819571        3.768346216858196       10.000008917160937        0.040226983806226        0.085808549447504        0.000000000000000
Se          3.380827259239005        5.686600641430081        8.330215625693899       -0.144850360370094        0.007638493793217        0.037308009083604
Se          3.380827259239005        5.686600641430081       11.669799553078951       -0.144850360370094        0.007638493793217       -0.037308009083604
Mo          8.349585200257208        0.893632078992531       10.000008917160937        0.185717034928534        0.043844784680182        0.000000000000000
Se          8.359979019127621        2.811886503564417        8.330215625693899       -0.030224873821247       -0.014547822404248        0.012822611412546
Se          8.359979019127621        2.811886503564417       11.669799553078951       -0.030224873821247       -0.014547822404248       -0.012822611412546
Mo          6.696981277606772        3.768492272054382       10.000008917160937        0.013388511471076        0.007706628057420        0.000000000000000
Se          6.699219905431954        5.684794868095415        8.330215625693899       -0.053646091418586        0.008872366751366        0.020831087115906
Se          6.699219905431954        5.684794868095415       11.669799553078951       -0.053646091418586        0.008872366751366       -0.020831087115906
Mo         11.676141004142453        0.893775478639696       10.000008917160937       -0.012996160953440        0.038334136813542        0.000000000000000
Se         11.678369009771547        2.810080730229751        8.330215625693899       -0.014234661899346        0.024319818553523        0.013550491042577
Se         11.678369009771547        2.810080730229751       11.669799553078951       -0.014234661899346        0.024319818553523       -0.013550491042577
Mo         10.018318927664639        3.771782497292103       10.000008917160937       -0.012680686454659       -0.063032679031860        0.000000000000000
Se         10.012269586993510        5.686151853645436        8.330234214537052        0.042801430551370        0.008661536197984        0.000190004608475
Se         10.012269586993510        5.686151853645436       11.669780964235800        0.042801430551370        0.008661536197984       -0.000190004608475
Mo         14.997473343102277        0.897068359426439       10.000008917160937       -0.213861371142500        0.031384184754420        0.000000000000000
Se         14.991424002431149        2.811437715779772        8.330234214537052        0.002594501358758        0.062340537751732        0.013263555801632
Se         14.991424002431149        2.811437715779772       11.669780964235800        0.002594501358758        0.062340537751732       -0.013263555801632
Mo         13.334321579738178        3.778015070845720       10.000008917160937       -0.038289399598556       -0.129896303484938        0.000000000000000
Se         13.320371980727888        5.690586620511453        8.330271392223352        0.137426553786723        0.006726008873761       -0.022953276613002
Se         13.320371980727888        5.690586620511453       11.669749097647541        0.137426553786723        0.006726008873761        0.022953276613002
Mo         18.313475995175818        0.903300932980056       10.000008917160937       -0.402948866710412        0.023871160851508        0.000000000000000
Se         18.299526396165525        2.815872482645788        8.330271392223352        0.019406695328420        0.097320668993476        0.011913211818261
Se         18.299526396165525        2.815872482645788       11.669749097647541        0.019406695328420        0.097320668993476       -0.011913211818261
Mo         16.645214955494225        3.786799627009063       10.000008917160937       -0.061326751322479       -0.188687174626916        0.000000000000000
Se         16.624233462674823        5.697820336046201        8.330324503203784        0.224124191104466        0.003586690511811       -0.046704624003685
Se         16.624233462674823        5.697820336046201       11.669690675569067        0.224124191104466        0.003586690511811        0.046704624003685
Mo         21.624369370931863        0.912085489143399       10.000008917160937       -0.563794066990164        0.003439109124443        0.000000000000000
Se         21.603387878112461        2.823103542631515        8.330324503203784        0.035677671840923        0.120400958159370        0.010280303471271
Se         21.603387878112461        2.823103542631515       11.669690675569067        0.035677671840923        0.120400958159370       -0.010280303471271
Mo         19.951516886991978        3.797578500487603       10.000008917160937       -0.076597568258571       -0.239969649853741        0.000000000000000
Se         19.924847208168384        5.707396245817970        8.330388236380303        0.298341688103695       -0.000805269869748       -0.067656295911709
Se         19.924847208168384        5.707396245817970       11.669629597941571        0.298341688103695       -0.000805269869748        0.067656295911709
Mo         24.930671302429616        0.922864362621938       10.000008917160937       -0.683338333193594       -0.025184738043253        0.000000000000000
Se         24.904001623606021        2.832682107952306        8.330388236380303        0.158960323710427        0.114494360229060        0.028127881146385
Se         24.904001623606021        2.832682107952306       11.669629597941571        0.158960323710427        0.114494360229060       -0.028127881146385
Mo         23.254069183271280        3.809679837378882       10.000008917160937       -0.042433505524675       -0.204153652600964        0.000000000000000
Se         23.223389625425121        5.718716851296909        8.330459936203884        0.392981209523181       -0.044149974761725       -0.116005398231777
Se         23.223389625425121        5.718716851296909       11.669560553667012        0.392981209523181       -0.044149974761725        0.116005398231777
