# total energy = -9505.396693604898 eV 

 CRYSTAL
 PRIMVEC
        8.099322384569499        0.000000000000000        0.000000000000000
       -4.049661192284749        7.014215668096800        0.000000000000000
        0.000000000000000        0.000000000000000       19.999964538468078
 PRIMCOORD
12 1
Se          4.037337263344388        6.983128038988107        9.071636317650205        0.104651401600841       -0.076002871831774      -17.792940680094596
Se         -0.025724257825631        6.989884493721314        9.050368307000564       -0.253062484329219        0.056380460851783      -16.780691771219445
Se          6.031338598762138        3.502588412157810        8.997966501104639        0.016202328027438       -0.016640701312215      -10.706106369968262
Se          2.003334994533728        3.478986176796936        9.006955129087032        0.017790499159442       -0.009739086014113      -11.757095135917004
Se          4.025400482014010        7.007879568195352       10.943102194779565       -0.035610308908013        0.138437254890804       17.709385189353544
Se         -0.012310160092307        6.986193632510667       10.936439692186017       -0.124139858046305       -0.004161075214562       16.674829636599238
Se          6.037836685111278        3.503139976012200       10.996859827242668        0.025786119341255        0.009313054030022       10.567036623417311
Se          1.997601484217691        3.478683262139754       10.984458144807416        0.010813550505070        0.013966238609430       11.636508544026485
Mo          1.998826101762237        1.156476325461048       10.027944369834527        0.135093276625814        0.469402142915687        0.117835253168878
Mo          6.049239721096514        1.144303043917040       10.030719197683480        0.216710411827903        0.426432047921610        0.064435730653577
Mo         -0.012425170470168        4.650400892464084       10.031183288856115        0.261373836120244       -0.578994949889036        0.103391303378735
Mo          4.014557919137786        4.663141936507251       10.004254661791899       -0.375608771924470       -0.428392514957636        0.163411676601536
