# total energy = -38121.5087407758 eV 

 CRYSTAL
 PRIMVEC
       13.277745107833699        0.000000000000000        0.000000000000000
       -6.638872553916849       11.498859207011680        0.000000000000000
        0.000000000000000        0.000000000000000       20.000015178772852
 PRIMCOORD
48 1
Mo          1.553601071802895        0.909884039004520       10.000007589386426        1.303653243330843        0.710993131147024        0.000000000000000
Se          1.629188619152770        2.868157587331416        8.299683450818437        0.065507366929794       -0.096973827022119        0.670895730997999
Se          1.629188619152770        2.868157587331416       11.700327744630883        0.065507366929794       -0.096973827022119       -0.670895730997999
Mo         -0.048218131359098        3.835445301760633       10.000007589386426        0.732196771277383       -0.031136073188549        0.000000000000000
Se         -0.029634599306174        5.744997492188845        8.350099048992881        0.099649318166628       -0.117828825408104       -0.589100418267258
Se         -0.029634599306174        5.744997492188845       11.649918785328991        0.099649318166628       -0.117828825408104        0.589100418267258
Mo         -1.628135693965719        6.745199408965870       10.000007589386426       -1.103699489619515       -1.001863704348053        0.000000000000000
Se         -1.683880979026448        8.612585464255135        8.382146214585148       -0.096312024772843       -0.063920224239514       -1.623838005206679
Se         -1.683880979026448        8.612585464255135       11.617867636413193       -0.096312024772843       -0.063920224239514        1.623838005206679
Mo         -3.260996937415316        9.606279958154813       10.000007589386426       -1.803355850534477       -1.043188035473591        0.000000000000000
Se         -3.338682368492230       11.477608175966592        8.365766788220125        0.125026374812235        0.602749382604891       -0.215498650366816
Se         -3.338682368492230       11.477608175966592       11.634248390552727        0.125026374812235        0.602749382604891        0.215498650366816
Mo          5.036684229440859        0.993569683095663       10.000007589386426       -1.293576571320887       -1.197035461154064        0.000000000000000
Se          4.958414577579201        2.856936564940786        8.378044719121338       -0.130059054387732       -0.007577301510650       -1.422210976810702
Se          4.958414577579201        2.856936564940786       11.621967804102491       -0.130059054387732       -0.007577301510650        1.422210976810702
Mo          3.354367368788113        3.828400130206417       10.000007589386426       -1.460437898574536       -0.422117477779769        0.000000000000000
Se          3.300771750660343        5.725071580105519        8.336958064659658       -0.073131205428447        0.128036109516984       -0.168404504060235
Se          3.300771750660343        5.725071580105519       11.663058441887705       -0.073131205428447        0.128036109516984        0.168404504060235
Mo          1.615965312799879        6.654027772182930       10.000007589386426        0.690033231705210        0.672879852193672        0.000000000000000
Se          1.637416837796095        8.602640433169368        8.289827380624892        0.018448187641823        0.052052778077963        0.856095202629022
Se          1.637416837796095        8.602640433169368       11.710187798147960        0.018448187641823        0.052052778077963       -0.856095202629022
Mo         -0.104721575665484        9.516494517961128       10.000007589386426        2.184756549137052        1.681417886218864        0.000000000000000
Se         -0.028237780520830       11.486967658493104        8.280856936030039       -0.057255407648320       -0.435735331755256        0.328976653062314
Se         -0.028237780520830       11.486967658493104       11.719158242742813       -0.057255407648320       -0.435735331755256       -0.328976653062314
Mo          8.210818158360727        0.890922091216023       10.000007589386426        0.843949048760316        0.918760727965480        0.000000000000000
Se          8.272587556376880        2.858764910442134        8.278185453714343       -0.014190696015653        0.021075084914882        1.070245823006345
Se          8.272587556376880        2.858764910442134       11.721828397283998       -0.014190696015653        0.021075084914882       -1.070245823006345
Mo          6.532742209495424        3.784572949154479       10.000007589386426        2.162807031646495        1.183946483335049        0.000000000000000
Se          6.608344362364918        5.742866414099038        8.299656895328221        0.072073453115502       -0.077862294468434        0.671515624247029
Se          6.608344362364918        5.742866414099038       11.700358283444631        0.072073453115502       -0.077862294468434       -0.671515624247029
Mo          4.930884500872618        6.710128900812550       10.000007589386426        0.422744055900004       -0.144140735580660        0.000000000000000
Se          4.949517160582441        8.619715613378041        8.350068510179133        0.013183594457606       -0.148035187278323       -0.531360357456589
Se          4.949517160582441        8.619715613378041       11.649947996368230        0.013183594457606       -0.148035187278323        0.531360357456589
Mo          3.350978888236594        9.619905580184470       10.000007589386426       -1.246615351107110       -1.382929130948663        0.000000000000000
Se          3.295269453087657       11.487307568767864        8.382140903487105        0.010391632287874        0.424364622946308       -0.677368486097270
Se          3.295269453087657       11.487307568767864       11.617878258609279        0.010391632287874        0.424364622946308        0.677368486097270
Mo         11.620828573572238        0.986827244129905       10.000007589386426       -0.181528706008291       -0.957261215227849        0.000000000000000
Se         11.591447579197624        2.866787324036288        8.374535411089338        0.235230076169531        0.121927422787944       -1.054742321130240
Se         11.591447579197624        2.866787324036288       11.625478439909003        0.235230076169531        0.121927422787944        1.054742321130240
Mo         10.015826694907899        3.868297098706436       10.000007589386426       -1.968718223975663       -1.292118498066946        0.000000000000000
Se          9.937566337467818        5.731658669453515        8.378059324640956        0.520231846673601        0.405529998326761       -0.861848048521621
Se          9.937566337467818        5.731658669453515       11.621958509680915        0.520231846673601        0.405529998326761        0.861848048521621
Mo          8.333558961912052        6.703146134660340       10.000007589386426       -1.441684777961601       -0.322256043507603        0.000000000000000
Se          8.279927493872490        8.599787045745694        8.336989931247917        0.330955374938937        0.244804097286972        0.070523848548141
Se          8.279927493872490        8.599787045745694       11.663027903073957        0.330955374938937        0.244804097286972       -0.070523848548141
Mo          6.595171511443437        9.528765809989789       10.000007589386426        0.485534794016336        1.016821875000104        0.000000000000000
Se          6.616575236557265       11.477347932162479        8.289847297242552       -0.282778022386746       -0.247993809293389        0.301672296626275
Se          6.616575236557265       11.477347932162479       11.710167881530298       -0.282778022386746       -0.247993809293389       -0.301672296626275
