# total energy = -9521.307118418283 eV 

 CRYSTAL
 PRIMVEC
        6.107710890233100        0.000000000000000        0.000000000000000
       -3.053855445116550        5.289430323714121        0.000000000000000
        0.000000000000000        0.000000000000000       20.000047449589029
 PRIMCOORD
12 1
Se          3.039008210713482        5.281290577410706        7.824142558582636       -0.006221558208229       -0.041587869317267        3.084851059815259
Se         -0.015106201344814        5.275708129657033        7.804128811537521       -0.033069286518893        0.025579402554768        2.898187858500815
Se          4.569325102044748        2.629613846680959        7.828370316060856       -0.084295454561339        0.034224483685170        3.054129448641409
Se          1.496571177891638        2.634418782838305        7.802921317094523        0.097304471036326       -0.024446831106415        3.090999084440235
Se          3.045695543367198        5.267355835014640       12.168381412731803       -0.106087106247289        0.133097328350317       -3.015258465248035
Se         -0.040483740093732        5.285762643324535       12.183208491688932        0.107318408101129       -0.064349341548777       -3.083753969606378
Se          4.552362156589303        2.624227456446862       12.181073846732795        0.125474518293388       -0.030364999006117       -3.037610103452604
Se          1.507160116262035        2.641459751952566       12.136727590272081       -0.091582478395441       -0.049703302959904       -3.027016125255569
Mo          1.504657787110307        0.870153965880818       10.003118501902595       -0.012586584036930        0.056630886411533        0.089306536860635
Mo          4.557399796531567        0.870672510535399       10.022388329761281        0.034765958252760       -0.024876205526108        0.083279354138208
Mo         -0.011541741269273        3.508213555180792       10.022179446048835       -0.023805083470753        0.007712027376470        0.162518732074833
Mo          3.028755807213137        3.516378953869944        9.961346645582113       -0.007215547134298       -0.021915836024102       -0.299633668019239
