# total energy = -38122.29627286621 eV 

 CRYSTAL
 PRIMVEC
       13.277745107833699        0.000000000000000        0.000000000000000
       -6.638872553916849       11.498859207011680        0.000000000000000
        0.000000000000000        0.000000000000000       20.000015178772852
 PRIMCOORD
48 1
Mo          1.634851577441262        0.943875066480574       10.000007589386426       -0.002551821027220       -0.001473242769367        0.000000000000000
Se          1.624075359511743        2.879276371084716        8.330514374958828        0.118775506014877       -0.200777278421674       -0.008438364343916
Se          1.645852189263102        2.841558280556893       11.669498148265003       -0.114465049639931        0.203187945822300        0.008435536129175
Mo         -0.024865233263440        3.818589204346238       10.000007589386426       -0.002559020119287       -0.001464501014715        0.000000000000000
Se         -0.035642778967469        5.753990508950380        8.330514374958828        0.118742595879715       -0.200754652703750       -0.008444792104689
Se         -0.013865949216111        5.716272418422557       11.669498148265003       -0.114487161136993        0.203211599981948        0.008444792104689
Mo         -1.684584699517163        6.693304669986414       10.000007589386426       -0.002534594628346       -0.001463215462560        0.000000000000000
Se         -1.695359589672170        8.628704646816043        8.330514374958828        0.118742852990146       -0.200754652703750       -0.008444792104689
Se         -1.673584087695323        8.590986556288222       11.669498148265003       -0.114487161136993        0.203211599981948        0.008444792104689
Mo         -3.344301510221865        9.568020135626588       10.000007589386426       -0.002547707260325       -0.001484041407467        0.000000000000000
Se         -3.355077728151382       11.503418784681710        8.330514374958828        0.118733339904201       -0.200723542341604       -0.008435536129175
Se         -3.333302226174535       11.465698038604865       11.669498148265003       -0.114490503572595        0.203251194988315        0.008438364343916
Mo          4.954287854399686        0.943875066480574       10.000007589386426       -0.007694800977596       -0.004465751075243        0.000004627987757
Se          4.974276171885019        2.825991452192469        8.330514374958828       -0.149562680348622        0.268531276297145       -0.019485371120292
Se          4.934525258581187        2.894841871674629       11.669498148265003        0.157773501961143       -0.263790931281644        0.019485371120292
Mo          3.294569715920474        3.818589204346238       10.000007589386426       -0.007714855591211       -0.004431041167064       -0.000004627987757
Se          3.314556705631296        5.700706917832643        8.330514374958828       -0.149550339047936        0.268528962303267       -0.019474829592623
Se          3.274807120101974        5.769556009540294       11.669498148265003        0.157785071930536       -0.263788360177334        0.019474058261330
Mo          1.634851577441262        6.693304669986414       10.000007589386426       -0.007678860130877       -0.004445696461628       -0.000000771331293
Se          1.654838567152083        8.575422383472818        8.330514374958828       -0.149555995477417        0.268529990744991       -0.019484342678568
Se          1.615088981622762        8.644271475180469       11.669498148265003        0.157775558844590       -0.263784246410439        0.019484342678568
Mo         -0.024865233263440        9.568020135626588       10.000007589386426       -0.007689401658546       -0.004427441621031        0.000000771331293
Se         -0.004879571327129       11.450137849112995        8.330514374958828       -0.149554967035693        0.268540018051798       -0.019474058261330
Se         -0.044629156856451       11.518988268595155       11.669498148265003        0.157777615728038       -0.263779104201820        0.019474829592623
Mo          8.273725459132622        0.943875066480574       10.000007589386426       -0.064606451979731       -0.037336291231009        0.000003342435602
Se          8.316883441831125        2.785856812055020        8.330514374958828       -0.301362992777837        0.603804820923958       -0.072171412189695
Se          8.230789214777420        2.934976511812079       11.669498148265003        0.372230340861733       -0.562892894929670        0.072171412189695
Mo          6.614007320653410        3.818589204346238       10.000007589386426       -0.064610565746626       -0.037302866874985        0.000000000000000
Se          6.657165303351912        5.660572277695195        8.330514374958828       -0.301364278329992        0.603807392028267       -0.072171412189695
Se          6.571071076298208        5.809690649677743       11.669498148265003        0.372228798199147       -0.562890323825360        0.072171412189695
Mo          4.954287854399686        6.693304669986414       10.000007589386426       -0.064637305231445       -0.037282555150939       -0.000003342435602
Se          4.997447164872700        8.535286415560858        8.330514374958828       -0.301343452385085        0.603787594525084       -0.072162156214181
Se          4.911352937818995        8.684406115317918       11.669498148265003        0.372258108788276       -0.562908835776389        0.072168841085386
Mo          3.294569715920474        9.568020135626588       10.000007589386426       -0.064621364384726       -0.037309294635758        0.000000000000000
Se          3.337729026393487       11.409997897877503        8.330514374958828       -0.301364278329992        0.603839273721706       -0.072168841085386
Se          3.251634799339783       11.559117597634561       11.669498148265003        0.372223655990528       -0.562864869892696        0.072162156214181
Mo         11.593157752767514        0.943875066480574       10.000007589386426       -0.093228499374410       -0.053877490806445        0.000005142208619
Se         11.643048880010198        2.774201607399363        8.330514374958828       -0.362112274072394        0.725067356137455       -0.095087407790209
Se         11.543497658289704        2.946631716467735       11.669498148265003        0.446864613869538       -0.676144126225066        0.095088436231932
Mo          9.933443597611834        3.818589204346238       10.000007589386426       -0.093258324184401       -0.053840724014818        0.000003599546033
Se          9.983330741530986        5.648917073039539        8.330514374958828       -0.362119473164460        0.725071727014781       -0.095088950452794
Se          9.883778192035981        5.821347182107910       11.669498148265003        0.446870784519881       -0.676140526679033        0.095088950452794
Mo          8.273725459132622        6.693304669986414       10.000007589386426       -0.093256524411384       -0.053843552229559       -0.000003599546033
Se          8.323612603051775        8.523631210905203        8.330514374958828       -0.362125900925234        0.725068127468748       -0.095088436231932
Se          8.224060053556769        8.696061319973575       11.669498148265003        0.446870784519881       -0.676132042034811        0.095087407790209
Mo          6.614007320653410        9.568020135626588       10.000007589386426       -0.093273493699827       -0.053799329235434       -0.000005142208619
Se          6.663894464572562       11.398348004319889        8.330514374958828       -0.362114330955841        0.725069670131333       -0.095061182526251
Se          6.564341915077557       11.570778113388259       11.669498148265003        0.446871555851173       -0.676135127359983        0.095061182526251
