# total energy = -38122.138669085754 eV 

 CRYSTAL
 PRIMVEC
       13.277745107833699        0.000000000000000        0.000000000000000
       -6.638872553916849       11.498859207011680        0.000000000000000
        0.000000000000000        0.000000000000000       20.000015178772852
 PRIMCOORD
48 1
Mo          1.634851577441262        0.943875066480574        9.999816389856873        0.001870221274761       -0.014685119374378       -0.331767586790321
Se          1.575723122927056        2.895234892929821        8.328466946663198        0.575721419882128       -0.312360891461901       -0.044314525437535
Se          1.694204425847789        2.825598430937277       11.667448064420354       -0.551122636511019        0.289065143754869        0.049306067344080
Mo         -0.024865233263440        3.818589204346238        9.999909334072628       -0.022036420816219       -0.030744751112637        0.224521940941153
Se         -0.073297136318774        5.809066595657675        8.330195709076238        0.529520475212681       -0.625130331398589       -0.052393192288546
Se          0.023788408135195        5.661197659489773       11.669178154607904       -0.481476305863725        0.649511342234679        0.097889911487609
Mo         -1.684584699517163        6.693304669986414       10.000047422621750       -0.031657236032093       -0.024805500157596        0.351020530081031
Se         -1.698097460713406        8.686008739152435        8.332083804430573        0.139085944508101       -0.695138930643098       -0.044763954470843
Se         -1.670847544428599        8.533685119500856       11.671068905511261       -0.137761311567826        0.728196904303029        0.072451662559435
Mo         -3.344301510221865        9.568020135626588       10.000166922327720       -0.012398122091041       -0.000814525845263        0.250713009211160
Se         -3.316099579612826       11.524948648374060        8.333188512823545       -0.315691499984482       -0.312351378375956       -0.052298575649955
Se         -3.372283030262114       11.444177469334088       11.672178925002276        0.277765140314433        0.319405974380476       -0.002676519586233
Mo          4.954287854399686        0.943875066480574       10.000206755563044        0.023445128867417        0.028363908522001        0.204223072417322
Se          5.007633850919429        2.853415306938189        8.333080963088170       -0.522730188731182       -0.017097586548021       -0.043164984700739
Se          4.901166251772265        2.867419344703420       11.672068719717879        0.528248807021182       -0.017048992676570        0.014105849573438
Mo          3.294569715920474        3.818589204346238       10.000166922327720       -0.006996231936694       -0.015253333426787       -0.150327069659848
Se          3.352290729453248        5.677027387207333        8.331779744067603       -0.574312968941361        0.523244923813952       -0.076682671811217
Se          3.237073096280022        5.793236867940116       11.670768828471823        0.612293836022771       -0.520112033212776        0.053083019574796
Mo          1.634851577441262        6.693304669986414       10.000036800425663       -0.055785764424986       -0.039366949414685       -0.013935642468147
Se          1.668203945377629        8.529630096144922        8.329846504379901       -0.275739367228945        0.790229680868909       -0.070426146584378
Se          1.601723603397216        8.690063762508366       11.668827622137059        0.307142063934394       -0.760040288287133        0.079066856837455
Mo         -0.024865233263440        9.568020135626588        9.999897384102031       -0.032965156794357       -0.004230495030920        0.141606655173176
Se         -0.032466742337675       11.422258567710076        8.328246536094408        0.148934045344939        0.567323678986303        0.004553939953060
Se         -0.017040658071394       11.546867549998074       11.667227653851565       -0.145694196804485       -0.525801887049791        0.082537847655336
Mo          8.273725459132622        0.943875066480574        9.999819045405895       -0.006946866733950        0.035039523751295        0.169020540652802
Se          8.233483269259800        2.838698254260665        8.327759242848950        0.364872354548686        0.269575915978112        0.013963410394690
Se          8.314189387348746        2.882136397380944       11.666748327253172       -0.388361963520659       -0.294218151012052        0.055182583353968
Mo          6.614007320653410        3.818589204346238        9.999816389856873        0.025799746194095        0.002772164666548        0.171481601697895
Se          6.554881521688226        5.769905214236630        8.328465618888687        0.646682870383752       -0.289631300923830       -0.023506064039553
Se          6.673354857961893        5.700357713136308       11.667448064420354       -0.626141546723532        0.278500219036531        0.069982116870120
Mo          4.954287854399686        6.693304669986414        9.999909334072628       -0.033882783922432       -0.035233385016234        0.090837886587398
Se          4.905836034726690        8.683760816905677        8.330194381301729        0.488936879238722       -0.687767317477211       -0.073185198618947
Se          5.002964067965005        8.535931713973101       11.669178154607904       -0.447118896085751        0.704386421513226        0.082052166051264
Mo          3.294569715920474        9.568020135626588       10.000047422621750       -0.057389876403709       -0.019796217631316       -0.058107471616502
Se          3.281021104812440       11.560738810312229        8.332082476656062        0.110304231535800       -0.674169003894476       -0.089027314932619
Se          3.308342720920830       11.408388635170432       11.671068905511261       -0.067363447130852        0.718647308676529        0.026128847545717
Mo         11.593157752767514        0.943875066480574       10.000157627906145       -0.039471336249652        0.016744059705459       -0.523019695076437
Se         11.615538719921279        2.908051900282413        8.333102207480344       -0.222720111041026       -0.461772390877122       -0.073525612829531
Se         11.571007818378625        2.812781423584685       11.672088636335541        0.169122356383459        0.483088131155377       -0.019405409776265
Mo          9.933443597611834        3.818589204346238       10.000206755563044        0.030797458750982        0.018764176361466       -0.196397659340801
Se          9.986771005288427        5.728179900235263        8.333082290862682       -0.579211693982330        0.038294541807175       -0.061224164260529
Se          9.880337928278541        5.742083027137675       11.672068719717879        0.564231411833217       -0.063495734918009       -0.000513963751477
Mo          8.273725459132622        6.693304669986414       10.000166922327720        0.001899531863889       -0.021084598000827       -0.172022819155053
Se          8.331454439312461        8.551776047210277        8.331781071842114       -0.510069042669275        0.533196383044033       -0.077469686840367
Se          8.216218217296083        8.667917811443010       11.670768828471823        0.572212119610034       -0.534489391401302        0.051259335288038
Mo          6.614007320653410        9.568020135626588       10.000036800425663       -0.055960856628466       -0.032458906355808       -0.040292289855689
Se          6.647390227403524       11.404348217334118        8.329847832154414       -0.232424230036529        0.786421104055185       -0.102315296225192
Se          6.580846152246595       11.564777900374031       11.668838244333145        0.314544530351995       -0.751673657753453        0.037773893184493
