# total energy = -9525.772907170465 eV 

 CRYSTAL
 PRIMVEC
        6.107710890233100        0.000000000000000        0.000000000000000
       -3.053855445116550        5.289430323714121        0.000000000000000
        0.000000000000000        0.000000000000000       20.000047449589029
 PRIMCOORD
12 1
Se          3.058344612620871        5.239544373475963        8.086297114642132        0.034330927403585        0.355893286968474        1.662610001084136
Se          0.021566327153413        5.267697866824492        7.933529217542356       -0.035091974279210        0.130865609809635        2.525234523107239
Se          4.544740344169381        2.654761735500405        7.935884961632719        0.054933186235942       -0.335617301272998        2.406433306049266
Se          1.505960561843194        2.667663053213844        8.048132472373423       -0.005684968738827       -0.512025138827975        2.108111929669616
Se          3.064742439778390        5.280988245721640       11.719805472567344        0.373892559797851        0.915486426627278        1.373600650292784
Se         -0.050596277014691        5.226492806074624       12.065768205149352        0.450811258984684        0.361209559349313       -2.618681309237529
Se          4.557300851615145        2.659697376670802       11.714012919559048        0.580412656805317       -0.586936576880348        0.509676692151639
Se          1.509969663271543        2.666969828027802       11.954671387140369       -0.380829399224995       -0.469517585499185       -2.188283075808020
Mo          1.551776333544099        0.818053359673863        9.921327091516039        0.542939839935472        0.920174064004435       -0.212543165962998
Mo          4.633784661238090        0.840727625582764       10.028200427444427       -2.140429682398831        0.153354287873903       -2.094958674242863
Mo         -0.073360326273679        3.502979246947862        9.876718203487043        1.101938797388341        0.650722846585335        0.146980263180118
Mo          3.014568205586214        3.556273910633858       10.112730535394164       -0.577222944798900       -1.583609735848298       -3.618181140283389
