# total energy = -9528.773556666374 eV 

 CRYSTAL
 PRIMVEC
        6.771563749103600        0.000000000000000        0.000000000000000
       -3.385781874551800        5.864343495817446        0.000000000000000
        0.000000000000000        0.000000000000000       19.999962507379962
 PRIMCOORD
12 1
Se          3.353114496713375        5.858625587387702        8.143397920125125        0.088009928957333       -0.024161438528055        2.294213087581996
Se         -0.007569931115123        5.842436809932720        8.189833918534605       -0.202149476791676        0.033191671084027        2.109066066478888
Se          5.052663235467393        2.919060646177708        8.171679356123256        0.068684223414664        0.038738828631864        2.094224109741627
Se          1.675875351887152        2.916727165309767        8.143637633481843       -0.108329880536503       -0.013873421743856        2.382662675376261
Se          3.371239941400600        5.844980209276883       11.798142243853071       -0.138257020478705        0.006981833752560       -2.170397702899555
Se         -0.017862030857385        5.858759664349934       11.827184126460228       -0.029093845035480        0.003212337724341       -2.260383268408340
Se          5.037713654178497        2.927426913189726       11.847999913424973        0.058211858451470       -0.065700713973872       -2.456213742138456
Se          1.663763732965506        2.918250089996941       11.817319989546908        0.033537227503230        0.045052689484805       -2.195298848137466
Mo          1.657137757837008        0.971583289565010       10.017224363620699        0.185515203240235       -0.070159780177910       -0.393296941132393
Mo          5.052946963988481        0.970668451302506        9.962980075052130        0.071223703141198       -0.008901420230064        0.457109436101337
Mo         -0.030214040292125        3.895632546756683       10.015406198754064        0.052991231150946       -0.043827301170877       -0.173949604724624
Mo          3.363497335409875        3.888576577330117        9.961366411410719       -0.080343153016711        0.099447229367898        0.312264475050294
