# total energy = -38121.95316042673 eV 

 CRYSTAL
 PRIMVEC
       13.277745107833699        0.000000000000000        0.000000000000000
       -6.638872553916849       11.498859207011680        0.000000000000000
        0.000000000000000        0.000000000000000       20.000015178772852
 PRIMCOORD
48 1
Mo          1.633003315322251        0.942807535773904       10.000007589386426       -1.014376497691299       -0.585650510504716        0.000000000000000
Se          1.628123743995122        2.856466532763968        8.423101419370262        0.045618846653766        0.026297254877992       -1.523783738111298
Se          1.628123743995122        2.856466532763968       11.576917742726122        0.045618846653766        0.026297254877992        1.523783738111298
Mo         -0.026714823156961        3.817523001414080       10.000007589386426       -1.014356957298546       -0.585631998553687        0.000000000000000
Se         -0.031594394484090        5.731181998404144        8.423101419370262        0.045580280089123        0.026320909037639       -1.523795308080691
Se         -0.031594394484090        5.731181998404144       11.576917742726122        0.045580280089123        0.026320909037639        1.523795308080691
Mo         -1.686432961636174        6.692237139279745       10.000007589386426       -1.014343330445706       -0.585631227222394        0.000000000000000
Se         -1.691313860737814        8.605897464044318        8.423101419370262        0.045584650966449        0.026313195724711       -1.523795308080691
Se         -1.691313860737814        8.605897464044318       11.576917742726122        0.045584650966449        0.026313195724711        1.523795308080691
Mo         -3.346151100115386        9.566951277145408       10.000007589386426       -1.014350529537773       -0.585642797191787        0.000000000000000
Se         -3.351031999217025       11.480607618586451        8.423101419370262        0.045583622524725        0.026358447160559       -1.523783738111298
Se         -3.351031999217025       11.480607618586451       11.576917742726122        0.045583622524725        0.026358447160559        1.523783738111298
Mo          4.954097982644645        0.943764861196179       10.000007589386426        0.026796820445336        0.015426368746819        0.000000000000000
Se          4.937946933495476        2.850916435308894        8.387736145275547        0.176761107287108        0.102053043585619       -0.972257438223681
Se          4.937946933495476        2.850916435308894       11.612277705722795        0.176761107287108        0.102053043585619        0.972257438223681
Mo          3.294379844165432        3.818480326836354       10.000007589386426        0.026757996770262        0.015493474569298        0.000000000000000
Se          3.278228795016263        5.725631900949069        8.387736145275547        0.176796845637010        0.102036845628469       -0.972246382475150
Se          3.278228795016263        5.725631900949069       11.612277705722795        0.176796845637010        0.102036845628469        0.972246382475150
Mo          1.634661705686219        6.693194464702018       10.000007589386426        0.026787050248959        0.015484218593783        0.000000000000000
Se          1.618510656537051        8.600347366589244        8.387736145275547        0.176761621507969        0.102053300696050       -0.972257695334112
Se          1.618510656537051        8.600347366589244       11.612277705722795        0.176761621507969        0.102053300696050        0.972257695334112
Mo         -0.025056432792993        9.567909930342195       10.000007589386426        0.026803248206109        0.015456193556809        0.000000000000000
Se         -0.041208809716673       11.475057521131376        8.387736145275547        0.176764963943572        0.102092124371124       -0.972246382475150
Se         -0.041208809716673       11.475057521131376       11.612277705722795        0.176764963943572        0.102092124371124        0.972246382475150
Mo          8.275265677565130        0.944764675402799       10.000007589386426       -0.016854102969907       -0.009762997284191        0.000000000000000
Se          8.254054479755366        2.848995145591790        8.330514374958828        0.202346166271356        0.116820952518764       -0.011883901229132
Se          8.254054479755366        2.848995145591790       11.669498148265003        0.202346166271356        0.116820952518764        0.011883901229132
Mo          6.615547539085918        3.819480141042974       10.000007589386426       -0.016851017644736       -0.009728801596875        0.000000000000000
Se          6.594336341276154        5.723710611231966        8.330514374958828        0.202343080946185        0.116826608948245       -0.011883901229132
Se          6.594336341276154        5.723710611231966       11.669498148265003        0.202343080946185        0.116826608948245        0.011883901229132
Mo          4.955829400606706        6.694194278908638       10.000007589386426       -0.016881870896450       -0.009714660523172        0.000000000000000
Se          4.934616875022431        8.598424749097630        8.330514374958828        0.202369563320573        0.116815296089283       -0.011872845480601
Se          4.934616875022431        8.598424749097630       11.669498148265003        0.202369563320573        0.116815296089283        0.011872845480601
Mo          3.296111262127493        9.568908416774304       10.000007589386426       -0.016843304331807       -0.009724430719548        0.000000000000000
Se          3.274898736543218       11.473137559188784        8.330514374958828        0.202349765817389        0.116849491776600       -0.011872845480601
Se          3.274898736543218       11.473137559188784       11.669498148265003        0.202349765817389        0.116849491776600        0.011872845480601
Mo         11.595847823926361        0.945424579334658       10.000007589386426       -0.049778636316173       -0.028758315923085        0.000000000000000
Se         11.577718390756125        2.851435595142610        8.273291276867596        0.102372888961726        0.059107631192914        0.704024667136873
Se         11.577718390756125        2.851435595142610       11.726718590807213        0.102372888961726        0.059107631192914       -0.704024667136873
Mo          9.936127029898127        3.820140044974834       10.000007589386426       -0.049742640855840       -0.028734918873868        0.000000000000000
Se          9.917998924502403        5.726151060782786        8.273291276867596        0.102377774059914        0.059107888303345        0.704023124474288
Se          9.917998924502403        5.726151060782786       11.726718590807213        0.102377774059914        0.059107888303345       -0.704023124474288
Mo          8.276408891418916        6.694854182840498       10.000007589386426       -0.049756524819111       -0.028711007603789        0.000000000000000
Se          8.258280786023189        8.600866526422962        8.273291276867596        0.102375202955604        0.059103774536450        0.704024667136873
Se          8.258280786023189        8.600866526422962       11.726718590807213        0.102375202955604        0.059103774536450       -0.704024667136873
Mo          6.616690752939702        9.569568320706162       10.000007589386426       -0.049794834273323       -0.028730547996542        0.000000000000000
Se          6.598562647543977       11.475578008739603        8.273291276867596        0.102406313317750        0.059124343370926        0.704032894670664
Se          6.598562647543977       11.475578008739603       11.726718590807213        0.102406313317750        0.059124343370926       -0.704032894670664
