# total energy = -9502.471661041356 eV 

 CRYSTAL
 PRIMVEC
        5.443805113637699        0.000000000000000        0.000000000000000
       -2.721902556818850        4.714471323538089        0.000000000000000
        0.000000000000000        0.000000000000000       19.999957500357748
 PRIMCOORD
12 1
Se          2.700694036476629        4.702902148910586        8.430885760771558       -0.281194993463362       -0.379832324973754      -10.697901461895654
Se         -0.019226430900346        4.700836769250471        8.403125620975073        0.014440864464971       -0.218739013128132      -10.192369647001426
Se          4.065907269909521        2.336621060564721        8.436991532587014        0.087671828740629        0.411797065081269      -11.244170624801550
Se          1.341143449122943        2.341374046809438        8.435423716714286        0.132159646608627        0.506379250874652      -10.946951995060264
Se          2.690612653786683        4.711525680591099       11.574204159047330        0.354679468623940       -0.138151090981152        8.870117292205789
Se         -0.019257460589493        4.710319877758429       11.544390615961980       -0.403408837271389       -0.104553185416217       10.290743954540952
Se          4.065159835467417        2.337796378088755       11.567048821605963        0.165108348335403        0.243111796430431        9.903457998173838
Se          1.343297562806409        2.342073575766540       11.608820227003930       -0.024217231491572       -0.081867817872269        8.011823795392109
Mo          1.340706855952829        0.773619689079565        9.962923857531365       -0.229394183607734        0.225243135699979        2.640071611540760
Mo          4.050243265075539        0.780114148580135        9.980075654302905        0.774095229995242       -0.780417832602836        0.834177309721472
Mo         -0.019471946510971        3.134086249183553        9.986899464012847        0.614798862951558       -0.301226981359862        1.052296686711004
Mo          2.714746130616462        3.121968339000595        9.988464013602508       -1.204738746775882        0.618256998247891        1.478705594693829
