# total energy = -9527.11583637317 eV 

 CRYSTAL
 PRIMVEC
        6.671972590841800        0.000000000000000        0.000000000000000
       -3.335986295420900        5.778095062983770        0.000000000000000
        0.000000000000000        0.000000000000000       19.999938398170332
 PRIMCOORD
12 1
Se          3.272055454055454        5.749201418481870        8.447428532283903        0.558149978809858       -0.259336750175794       -1.973268821493121
Se          0.000444353374550        5.729469726741715        8.460222039726842       -1.451279367913518       -0.494487893443022       -2.217049876375325
Se          4.989730778466348        2.851703833703684        8.360919068473788       -0.178416641352021        1.176949222956632       -0.695510198105395
Se          1.642221986381065        2.931856242029244        8.551379866840994       -0.306616787323954        0.211700872191192       -2.850439623257886
Se          3.357103755868173        5.795170642435511       11.516463199569889       -1.476082554077235        0.714776254028084        3.623087578637287
Se         -0.032569234202194        5.803122299369277       11.468633829657923        0.114509272634055        0.863235673517481        4.271936090180966
Se          4.932338470239927        2.858293741031658       11.418451255013165        0.123264911249768       -1.284758711980883        5.655744281693062
Se          1.616102548082437        2.881839132304739       11.393469388041277        0.531106846571669       -0.527013648510879        7.423459741399104
Mo          1.594681512882280        0.982173745927971       10.014359976766352        0.967839509688596       -1.415747477686945       -2.962543370699934
Mo          4.927566008245698        0.966258422509777        9.895674257939646        1.433551603699228       -0.313562882726612        0.739440600559085
Mo         -0.049506703821305        3.845484143150684       10.157573201231513       -0.902519319152536        0.724685804257919       -5.930988711342421
Mo          3.298826744076206        3.870095048446522       10.120163450914664        0.586492547166090        0.603559280462397       -5.083867691195422
