# total energy = -9524.8924040798 eV 

 CRYSTAL
 PRIMVEC
        7.037104892651799        0.000000000000000        0.000000000000000
       -3.518552446325899        6.094308764658774        0.000000000000000
        0.000000000000000        0.000000000000000       19.999937665154004
 PRIMCOORD
12 1
Se          3.486422432807030        6.070188383928721        8.630456034392870        0.040866160337578       -0.005327842350232       -4.884558770444928
Se         -0.035979309895150        6.078387314839150        8.635506564574326        0.285291276849323        0.098754316756477       -5.314592678393776
Se          5.250101772501312        3.040650689987598        8.621820099268607       -0.132468950457065       -0.214257321206170       -4.509112235202390
Se          1.740791156030932        3.025748916666919        8.653183772064667        0.081126568499829        0.194143057971764       -5.199250110852998
Se          3.499959007778535        6.085106342590653       11.330847221189988        0.076844908493149        0.039587550164443        5.779029761777307
Se         -0.036566908153687        6.080912931785122       11.329755766221139        0.127121824824511       -0.130290967996452        5.804791198517190
Se          5.245628284921053        3.027724935720776       11.406117502542772        0.285083788731543       -0.016311085739732        4.573789135440202
Se          1.728305220819900        3.034911227237151       11.350704523776074       -0.138088613146430        0.015457993329826        5.351032939772908
Mo          1.747338478423055        0.998058512715019        9.997106842017162       -0.411678537172599        0.075120211722308       -0.535909412311461
Mo          5.254654075656369        0.996076863977248       10.019983062602195       -0.146192219709243        0.466395236425678       -0.560509995455587
Mo         -0.037452175949182        4.054608133786586        9.982632924673956       -0.078944215161890       -0.382044760232115       -0.184690392977734
Mo          3.507048890957882        4.045353637142259       10.035214172431848        0.011038265021724       -0.141226388845795       -0.320019696979164
