# total energy = -9506.861846058697 eV 

 CRYSTAL
 PRIMVEC
        5.178263970089500        0.000000000000000        0.000000000000000
       -2.589131985044750        4.484506054696759        0.000000000000000
        0.000000000000000        0.000000000000000       19.999998575148734
 PRIMCOORD
12 1
Se          2.570702025748804        4.472298297387273        7.857420074254255        0.162405346374782       -0.023249467829461       -0.731225922290100
Se         -0.008782335693272        4.469540871823201        7.858076678125663       -0.153925073030621       -0.011244210476918       -0.908485052481966
Se          3.863568512036196        2.232779911241498        7.858686159794942        0.004342595178816        0.042529664825852       -0.414223930439045
Se          1.281852836649408        2.232251728316549        7.793361324159469        0.031671634216226       -0.045401845450041       -1.234028252849318
Se          2.569798936512421        4.472173501225593       12.170835769552861       -0.054986150984719        0.035357055133523        0.498719931136528
Se         -0.015541005827033        4.476576579079361       12.208214032368156        0.120698434927984        0.044183142007318        0.963074739182153
Se          3.869724950070235        2.233276506756229       12.168955541905321        0.048701857831337       -0.127890585013064        0.727663914379661
Se          1.280629730699673        2.227817580878961       12.148298929102237       -0.039389318022178       -0.038045144689149        0.864743626195027
Mo          1.279972091175472        0.736703847628678       10.033945914856686       -0.095792147481454       -0.072194295018050        1.357487025364025
Mo          3.862882909886556        0.736128542501601       10.034509309976631        0.031498856006625        0.122269893881975        0.943284435090749
Mo         -0.019036851833240        2.986360238975095        9.964195734832375       -0.207918520641426       -0.001669418028185       -1.213325463838458
Mo          2.573496216987065        2.983875707922246        9.966526989271708        0.152692485624627        0.075354696435339       -0.853684792338827
