# total energy = -38122.73030864838 eV 

 CRYSTAL
 PRIMVEC
       26.555490215667398        0.000000000000000        0.000000000000000
       -3.319436276958425        5.749422964633285        0.000000000000000
        0.000000000000000        0.000000000000000       20.000028456517960
 PRIMCOORD
48 1
Mo          1.554805363284175        0.994444686498270       10.000008917160937        0.751439687261285        0.009312025588298        0.000000000000000
Se          1.548663078397291        2.910242728225206        8.330818435321795        0.084769051975156        0.063020594841605       -0.031401668263725
Se          1.548663078397291        2.910242728225206       11.669199399000078        0.084769051975156        0.063020594841605        0.031401668263725
Mo         -0.109456419570938        3.867430061950894       10.000008917160937        0.697555768694067        0.005054019741266        0.000000000000000
Se         -0.107310735961512        5.785185243306725        8.330807813125711        0.089308079523221        0.070015284115713       -0.026021118275147
Se         -0.107310735961512        5.785185243306725       11.669210021196164        0.089308079523221        0.070015284115713        0.026021118275147
Mo          4.869697995866699        0.992713268536208       10.000008917160937        0.147208834353236       -0.056805207283720        0.000000000000000
Se          4.871846335025147        2.910471105441061        8.330807813125711        0.006505922344864       -0.043600786881207       -0.014962798639808
Se          4.871846335025147        2.910471105441061       11.669210021196164        0.006505922344864       -0.043600786881207        0.014962798639808
Mo          3.210752622152762        3.862628829319901       10.000008917160937        0.050929462605124        0.074269433306281        0.000000000000000
Se          3.221058807905463        5.782266794932022        8.330781257635493       -0.090770009433626       -0.009706690099812        0.006546288682524
Se          3.221058807905463        5.782266794932022       11.669239232235402       -0.090770009433626       -0.009706690099812       -0.006546288682524
Mo          8.189907037590400        0.987912035905215       10.000008917160937        0.297382923306667       -0.025573489014856        0.000000000000000
Se          8.200215878892122        2.907552657066359        8.330781257635493       -0.008399797779272       -0.077162696985808       -0.015631028649858
Se          8.200215878892122        2.907552657066359       11.669239232235402       -0.008399797779272       -0.077162696985808        0.015631028649858
Mo          6.536227617586230        3.855060514608436       10.000008917160937        0.044528184205658        0.159982080563039        0.000000000000000
Se          6.554056973717029        5.776387409398274        8.330736113302127       -0.178155931375034       -0.008248102625010        0.022071387834829
Se          6.554056973717029        5.776387409398274       11.669279065470723       -0.178155931375034       -0.008248102625010       -0.022071387834829
Mo         11.515379377474845        0.980346376742772       10.000008917160937        0.463946259570839       -0.014719315061695        0.000000000000000
Se         11.533208733605646        2.901673271532610        8.330736113302127       -0.024398237234964       -0.106506967581038       -0.014279142003901
Se         11.533208733605646        2.901673271532610       11.669279065470723       -0.024398237234964       -0.106506967581038        0.014279142003901
Mo          9.866591478768402        3.845200461091359       10.000008917160937        0.063187459511295        0.211667447835168        0.000000000000000
Se          9.890826019139219        5.767916208019476        8.330677691223652       -0.255631274644882       -0.008496471301311        0.035482525023829
Se          9.890826019139219        5.767916208019476       11.669340143098221       -0.255631274644882       -0.008496471301311       -0.035482525023829
Mo         14.845743238657017        0.970486323225694       10.000008917160937        0.601741766825982        0.000181777074685        0.000000000000000
Se         14.869983090125880        2.893199414604790        8.330677691223652       -0.038115592947231       -0.129251727634536       -0.012126870586384
Se         14.869983090125880        2.893199414604790       11.669340143098221       -0.038115592947231       -0.129251727634536        0.012126870586384
Mo         13.201151107404650        3.833670067239716       10.000008917160937        0.080066245082574        0.251621380363721        0.000000000000000
Se         13.230282480171237        5.757384300599942        8.330608646949091       -0.315662446505784       -0.008877251849554        0.045833790974044
Se         13.230282480171237        5.757384300599942       11.669409187372782       -0.315662446505784       -0.008877251849554       -0.045833790974044
Mo         18.180305522842289        0.958955929374052       10.000008917160937        0.701864425295997        0.015916678338648        0.000000000000000
Se         18.209436895608871        2.882667507185257        8.330608646949091       -0.049559835339431       -0.145098729046395       -0.009206610311607
Se         18.209436895608871        2.882667507185257       11.669409187372782       -0.049559835339431       -0.145098729046395        0.009206610311607
Mo         16.538963783592315        3.821191642387374       10.000008917160937        0.092077158864597        0.276555949957656        0.000000000000000
Se         16.571164971027834        5.745452918846044        8.330534291576488       -0.355638233420968       -0.009814162259951        0.053343215330922
Se         16.571164971027834        5.745452918846044       11.669480887196363       -0.355638233420968       -0.009814162259951       -0.053343215330922
Mo         21.518118199029953        0.946477504521710       10.000008917160937        0.747340832771014        0.050040631845316        0.000000000000000
Se         21.550319386465471        2.870738780980379        8.330534291576488       -0.062125850541885       -0.143536268957487       -0.006099944974387
Se         21.550319386465471        2.870738780980379       11.669480887196363       -0.062125850541885       -0.143536268957487        0.006099944974387
Mo         19.878876999056040        3.808548573495695       10.000008917160937        0.084389042758206        0.299094764555959        0.000000000000000
Se         19.912127128355078        5.732876238679903        8.330459936203884       -0.378314087878970       -0.005164063005714        0.058201574034232
Se         19.912127128355078        5.732876238679903       11.669560553667012       -0.378314087878970       -0.005164063005714       -0.058201574034232
Mo         24.858031414493677        0.933834435630030       10.000008917160937        0.670893159893689        0.032607516184900        0.000000000000000
Se         24.891281543792715        2.858159445265217        8.330459936203884       -0.455561374196562       -0.168584995582765       -0.199958895919947
Se         24.891281543792715        2.858159445265217       11.669560553667012       -0.455561374196562       -0.168584995582765        0.199958895919947
Mo         23.219589534775260        3.796537525271148       10.000008917160937       -0.039173088149745        0.200348675333273        0.000000000000000
Se         23.251809311053929        5.720437647062885        8.330388236380303       -0.695939058304227       -0.013764149810700       -0.084244032475148
Se         23.251809311053929        5.720437647062885       11.669629597941571       -0.695939058304227       -0.013764149810700        0.084244032475148
