# total energy = -9513.586401510298 eV 

 CRYSTAL
 PRIMVEC
        5.443805113637699        0.000000000000000        0.000000000000000
       -2.721902556818850        4.714471323538089        0.000000000000000
        0.000000000000000        0.000000000000000       19.999957500357748
 PRIMCOORD
12 1
Se          2.688731819119921        4.711722746336213        7.694572468135751       -0.022178859994968       -0.048594642781629        0.725915049228311
Se         -0.017092459295800        4.705306133248769        7.710290366640359       -0.029221114698802        0.094451316584028        0.841660508814393
Se          4.073102891508727        2.340769784441824        7.702780637486095       -0.016366878703249        0.024576671874046        0.666688633016296
Se          1.337468336290726        2.338242225727563        7.683105637044386        0.083341317752068       -0.029653060222805        0.330250378137261
Se          2.707780781973562        4.710063474537576       12.279594461115627        0.050295942503253        0.072651180253856       -0.813354964360219
Se         -0.007679575873809        4.696903620055869       12.311380294793647        0.040437557249178       -0.082376639415128       -0.430036993274019
Se          4.052445284244006        2.345901115141939       12.287687766178072        0.066086379620303        0.004752172095326       -0.874650348210122
Se          1.341845699982602        2.344394269886485       12.316479507043590       -0.079726859313714        0.023641561236666       -0.462828086306620
Mo          1.334736090504191        0.774757988728827        9.988318664005973       -0.125700261251766        0.043461690138061       -0.648570832278249
Mo          4.065382487096565        0.767649468011438        9.986828150165859        0.045735831899850       -0.074722461885622       -0.650677595149487
Mo         -0.026089436007109        3.131901650191451       10.023678355741096       -0.137764396892997        0.041729537164722        0.356471785438121
Mo          2.704922239908391        3.126138838098154       10.036400528291667        0.125061598941276       -0.069917839262382        0.959132464944333
