# total energy = -38122.068810765086 eV 

 CRYSTAL
 PRIMVEC
       13.277745107833699        0.000000000000000        0.000000000000000
       -6.638872553916849       11.498859207011680        0.000000000000000
        0.000000000000000        0.000000000000000       20.000015178772852
 PRIMCOORD
48 1
Mo          1.644727564252468        0.952093990702323       10.000007589386426        0.866494034008963        0.570800583344096        0.000000000000000
Se          1.642098570721117        2.917925231544598        8.327303816191751       -0.186577069320075       -0.460021211731893       -0.008758466830454
Se          1.642098570721117        2.917925231544598       11.672708707032077       -0.186577069320075       -0.460021211731893        0.008758466830454
Mo         -0.031500122493825        3.820951315200922       10.000007589386426       -0.499898782462453        0.003439623345305        0.000000000000000
Se         -0.102494897810901        5.716867261403388        8.337540957669892        0.805775091745259        0.231438468644250       -0.106120273492883
Se         -0.102494897810901        5.716867261403388       11.662478204426492        0.805775091745259        0.231438468644250        0.106120273492883
Mo         -1.695175029015171        6.685340678470735       10.000007589386426       -0.862373325132061       -0.608116819961490        0.000000000000000
Se         -1.700004144910891        8.550365950679826        8.334484420746069        0.257153882616993        0.545734630319944       -0.053308248312312
Se         -1.700004144910891        8.550365950679826       11.665528102477762        0.257153882616993        0.545734630319944        0.053308248312312
Mo         -3.338811162619776        9.564798954663429       10.000007589386426        0.424120882257763       -0.068973729759918        0.000000000000000
Se         -3.268127086538223       11.496397513068688        8.323915335640232       -0.846597543309575       -0.281446447464835       -0.045592878500240
Se         -3.268127086538223       11.496397513068688       11.676098515358108       -0.846597543309575       -0.281446447464835        0.045592878500240
Mo          4.942183861959385        0.939229183467343       10.000007589386426        0.322305151599915        0.022187858860051        0.000000000000000
Se          4.895411677042530        2.803950395313465        8.337803857023028        0.680888842117894        0.645003425048760       -0.131520470077275
Se          4.895411677042530        2.803950395313465       11.662208666200804        0.680888842117894        0.645003425048760        0.131520470077275
Mo          3.292339054742357        3.811303705605570       10.000007589386426        0.023612764868399        0.197594508396892        0.000000000000000
Se          3.343312318211332        5.708102621857707        8.327885381427475       -0.499267062133598        0.199693300844771       -0.003486417443738
Se          3.343312318211332        5.708102621857707       11.672128469570866       -0.499267062133598        0.199693300844771        0.003486417443738
Mo          1.646716570469622        6.697163182714750       10.000007589386426       -0.184475191547025       -0.028151535306033        0.000000000000000
Se          1.699206152429910        8.663394083684771        8.322940749149319       -0.885640533581257       -0.636611597692847       -0.024918628747215
Se          1.699206152429910        8.663394083684771       11.677078412947067       -0.885640533581257       -0.636611597692847        0.024918628747215
Mo         -0.021351941907907        9.575722555563644       10.000007589386426       -0.019408495101437       -0.176831041324327        0.000000000000000
Se         -0.066445819843132       11.517377678113576        8.332325459391534        0.502954282823912       -0.288530611168915       -0.029715795167958
Se         -0.066445819843132       11.517377678113576       11.667688391606806        0.502954282823912       -0.288530611168915        0.029715795167958
Mo          8.281425223520655        0.942402564548115       10.000007589386426       -0.160441794013585        0.180980289459065        0.000000000000000
Se          8.352348299014148        2.884894185039840        8.323141243100446       -0.976704934458326       -0.392370315139234       -0.025994378790328
Se          8.352348299014148        2.884894185039840       11.676877918995936       -0.976704934458326       -0.392370315139234        0.025994378790328
Mo          6.623881979690105        3.826808128567987       10.000007589386426       -0.140122356655278       -0.138874599733857        0.000000000000000
Se          6.621252986158754        5.792639369410263        8.327303816191751       -0.162892056420578       -0.553970134533836       -0.000927397324452
Se          6.621252986158754        5.792639369410263       11.672708707032077       -0.162892056420578       -0.553970134533836        0.000927397324452
Mo          4.947654292943812        6.695665453066587       10.000007589386426        0.167033848352819       -0.084946201062084        0.000000000000000
Se          4.876659517626736        8.591581399269053        8.337540957669892        0.910520852874261        0.225111495159330       -0.132283573836347
Se          4.876659517626736        8.591581399269053       11.662478204426492        0.910520852874261        0.225111495159330        0.132283573836347
Mo          3.283979386422466        9.560056144110911       10.000007589386426        0.246282482264958        0.204330287467029        0.000000000000000
Se          3.279150270526746       11.425078760770980        8.334484420746069        0.227682342358441        0.658854221074691       -0.079770825197407
Se          3.279150270526746       11.425078760770980       11.665528102477762        0.227682342358441        0.658854221074691        0.079770825197407
Mo         11.594088522699572        0.950659994230677       10.000007589386426        0.041156952234987       -0.306526798673120        0.000000000000000
Se         11.538267554491730        2.881346371547027        8.333929411000561        0.574561337617662       -0.316133215704861       -0.095297981233160
Se         11.538267554491730        2.881346371547027       11.666088423321312        0.574561337617662       -0.316133215704861        0.095297981233160
Mo          9.921338277397021        3.813943321333007       10.000007589386426        0.266234765927863        0.040483837126749        0.000000000000000
Se          9.874566092480167        5.678664533179129        8.337803857023028        0.450286239484676        0.541908569996915       -0.214432413409649
Se          9.874566092480167        5.678664533179129       11.662208666200804        0.450286239484676        0.541908569996915        0.214432413409649
Mo          8.271493470179996        6.686017843471235       10.000007589386426       -0.028401703755351        0.232069931862674        0.000000000000000
Se          8.322466733648968        8.582818087497882        8.327885381427475       -0.464491076574031        0.320866361628296        0.031996107580091
Se          8.322466733648968        8.582818087497882       11.672128469570866       -0.464491076574031        0.320866361628296       -0.031996107580091
Mo          6.625872313681770        9.571878648354925       10.000007589386426       -0.154374244953498        0.025499955431603        0.000000000000000
Se          6.678360567867547       11.538108221550436        8.322940749149319       -0.541525218344362       -0.472010271127286        0.120245663459073
Se          6.678360567867547       11.538108221550436       11.677078412947067       -0.541525218344362       -0.472010271127286       -0.120245663459073
