# total energy = -38122.7020486611 eV 

 CRYSTAL
 PRIMVEC
       26.555490215667398        0.000000000000000        0.000000000000000
       -3.319436276958425        5.749422964633285        0.000000000000000
        0.000000000000000        0.000000000000000       20.000028456517960
 PRIMCOORD
48 1
Mo          1.560081939190028        0.900706461585985       10.000008917160937        0.238026923437451        0.137425011124137        0.000000000000000
Se          1.591799816703621        2.835494334366145        8.349648933433725       -0.081786828086519       -0.047224758405506       -0.140181749164828
Se          1.591799816703621        2.835494334366145       11.650368900888148       -0.081786828086519       -0.047224758405506        0.140181749164828
Mo         -0.099636199289184        3.775423255000671       10.000008917160937        0.238056234026580        0.137441723302149        0.000000000000000
Se         -0.067918321775591        5.710211127780831        8.349648933433725       -0.081791198963845       -0.047217045092577       -0.140181749164828
Se         -0.067918321775591        5.710211127780831       11.650368900888148       -0.081791198963845       -0.047217045092577        0.140181749164828
Mo          4.919146974197293        0.923586671955804       10.000008917160937        0.391889518633350        0.226247923264148        0.000000000000000
Se          4.967183200448414        2.867796432664483        8.354120877986045       -0.200239403400118       -0.115608162615953       -0.164521622331966
Se          4.967183200448414        2.867796432664483       11.645899611884850       -0.200239403400118       -0.115608162615953        0.164521622331966
Mo          3.259431491267103        3.798303465370490       10.000008917160937        0.391881291099559        0.226262321448281        0.000000000000000
Se          3.307465061969202        5.742513226079168        8.354120877986045       -0.200234004081068       -0.115605077290782       -0.164514423239899
Se          3.307465061969202        5.742513226079168       11.645899611884850       -0.200234004081068       -0.115605077290782        0.164514423239899
Mo          8.294344469510577        0.955779892744258       10.000008917160937        0.350237628818776        0.202209897742950        0.000000000000000
Se          8.336700476404566        2.896710050411301        8.347758182530370       -0.214818593276943       -0.124029814781857       -0.102469819594195
Se          8.336700476404566        2.896710050411301       11.652259651791503       -0.214818593276943       -0.124029814781857        0.102469819594195
Mo          6.634626331031364        3.830494030609922       10.000008917160937        0.350248427456876        0.202216068393293        0.000000000000000
Se          6.676982337925354        5.771426843825988        8.347758182530370       -0.214822192822976       -0.124023387021083       -0.102469819594195
Se          6.676982337925354        5.771426843825988       11.652259651791503       -0.214822192822976       -0.124023387021083        0.102469819594195
Mo         11.660080243660017        0.982507993646327       10.000008917160937        0.146729323399507        0.084724571870601        0.000000000000000
Se         11.677370523339437        2.908968064694854        8.333479295441405       -0.136447477265650       -0.078778121823493        0.008664107302293
Se         11.677370523339437        2.908968064694854       11.666541194429490       -0.136447477265650       -0.078778121823493       -0.008664107302293
Mo         10.000359449631784        3.857222131511992       10.000008917160937        0.146738322264590        0.084708888134313        0.000000000000000
Se         10.017649729311204        5.783682202560517        8.333479295441405       -0.136434621744102       -0.078770665620996        0.008646623792988
Se         10.017649729311204        5.783682202560517       11.666541194429490       -0.136434621744102       -0.078770665620996       -0.008646623792988
Mo         14.995093971178953        0.991504993731395       10.000008917160937       -0.131882995784920       -0.076142739906213        0.000000000000000
Se         14.979434198598772        2.898940711589418        8.317843422802421        0.002993536747599        0.001694100629557        0.112687131009883
Se         14.979434198598772        2.898940711589418       11.682179722617496        0.002993536747599        0.001694100629557       -0.112687131009883
Mo         13.335381143797784        3.866219131597060       10.000008917160937       -0.131963214239378       -0.076189019783785        0.000000000000000
Se         13.319721371217604        5.773654849455082        8.317843422802421        0.002963969048040        0.001745522715748        0.112687131009883
Se         13.319721371217604        5.773654849455082       11.682179722617496        0.002963969048040        0.001745522715748       -0.112687131009883
Mo         18.292255502944474        0.978641514270926       10.000008917160937       -0.353320125775485       -0.204000671894546        0.000000000000000
Se         18.250876738090422        2.871232713098390        8.308020546971646        0.145555357171770        0.084036287246937        0.159907004317200
Se         18.250876738090422        2.871232713098390       11.691999942899249        0.145555357171770        0.084036287246937       -0.159907004317200
Mo         16.632534708916243        3.853358307685612       10.000008917160937       -0.353329638861430       -0.203983702606103        0.000000000000000
Se         16.591163910709255        5.745946850964055        8.308020546971646        0.145492108005755        0.083999777565741        0.159885149930569
Se         16.591163910709255        5.745946850964055       11.691999942899249        0.145492108005755        0.083999777565741       -0.159885149930569
Mo         21.561767458297446        0.949820840739862       10.000008917160937       -0.395114711879239       -0.228119430091063        0.000000000000000
Se         21.513728576497304        2.838561493486055        8.308525101285742        0.224610129818970        0.129675445624748        0.132827876618677
Se         21.513728576497304        2.838561493486055       11.691490077487108        0.224610129818970        0.129675445624748       -0.132827876618677
Mo         19.902057286465300        3.824537634154548       10.000008917160937       -0.395244038426009       -0.228194249226471        0.000000000000000
Se         19.854007782469068        5.713275631351719        8.308525101285742        0.224607301604229        0.129680330722936        0.132827876618677
Se         19.854007782469068        5.713275631351719       11.691490077487108        0.224607301604229        0.129680330722936       -0.132827876618677
Mo         24.826560503039094        0.918272918363649       10.000008917160937       -0.224716830647816       -0.129772119146787        0.000000000000000
Se         24.793950361054254        2.815920282528177        8.319120741881795        0.249295302294879        0.143930676358571        0.047941068066144
Se         24.793950361054254        2.815920282528177       11.680899747989102        0.249295302294879        0.143930676358571       -0.047941068066144
Mo         23.166850331206945        3.792987056229314       10.000008917160937       -0.224744341463928       -0.129724553717060        0.000000000000000
Se         23.134229567026019        5.690637075942862        8.319120741881795        0.249311243141598        0.143939932334085        0.047967293330101
Se         23.134229567026019        5.690637075942862       11.680899747989102        0.249311243141598        0.143939932334085       -0.047967293330101
