# total energy = -9517.506891571406 eV 

 CRYSTAL
 PRIMVEC
        6.107710890233100        0.000000000000000        0.000000000000000
       -3.053855445116550        5.289430323714121        0.000000000000000
        0.000000000000000        0.000000000000000       20.000047449589029
 PRIMCOORD
12 1
Se          3.032231705480768        5.266924019854700        8.585928020909138       -0.247209622478979        0.253909148978351      -10.088509374196631
Se         -0.027815126165211        5.284953371631579        8.591744393989908        0.228210447183621       -0.344883046983724       -9.822365882471757
Se          4.563532549036450        2.623690588659611        8.568378735208231        0.061509556838888        0.257223302433350       -9.329388769921021
Se          1.509110919120376        2.628512626407450        8.545152943005943       -0.203214942417550        0.083778405484690       -9.233181646204006
Se          3.024912835521002        5.272938893539401       11.451389902074270        0.280309505139156        0.024262482927420        8.091948404542510
Se         -0.012846348315427        5.278442551822591       11.459281675315541       -0.440842059134867        0.081107285217507        7.782484119195739
Se          4.561356982417349        2.638303897735582       11.401860642152103       -0.201943017115620        0.085751985152694        9.352044569765409
Se          1.504266282842243        2.641107337034200       11.427748174760357        0.220005539111012       -0.468956827649274        8.912453352877133
Mo          1.496405658926513        0.873974949813748        9.975981331646199        0.261002568657946       -0.086718977483512        2.316730304904099
Mo          4.560547099953304        0.870496608461760        9.993080479054496       -0.044210138602568       -0.382451766044315        0.978278964516628
Mo         -0.007252295911063        3.506495456107369        9.995162597696977       -0.276226848606034        0.650127121716814        0.060780905877564
Mo          3.019740825939153        3.513440534160653        9.980530965488336        0.362608497204135       -0.153149370860432        0.978725051114333
