# total energy = -38122.20274444051 eV 

 CRYSTAL
 PRIMVEC
       13.277745107833699        0.000000000000000        0.000000000000000
       -6.638872553916849       11.498859207011680        0.000000000000000
        0.000000000000000        0.000000000000000       20.000015178772852
 PRIMCOORD
48 1
Mo          1.634851577441262        0.943875066480574        9.999416729729127        0.033736488087219        0.006463499123757       -0.256988303499458
Se          1.688015668853027        2.836742442406281        8.340365134054329       -0.393615758066776        0.180988002771994       -0.142172812342137
Se          1.581911879921818        2.884092209235327       11.679348907360506        0.400400902339656       -0.200459489929014       -0.067437237824536
Mo         -0.024865233263440        3.818589204346238       10.002777327015920       -0.025455989547910       -0.019288167419750        0.137321909841325
Se          0.059569275651785        5.688058537842921        8.346977451118029       -0.725565379042213        0.351537836268111       -0.256789042915469
Se         -0.109078003835365        5.782205717304527       11.685958568875185        0.802501818848782       -0.380481785922345       -0.079834845694715
Mo         -1.684584699517163        6.693304669986414       10.004646833527104       -0.043752224925039        0.025828799672793       -0.476577066601893
Se         -1.614585755083175        8.564890476053286        8.344664467920245       -0.653312977066767        0.354384048738773       -0.229574675130264
Se         -1.754359250058829        8.654800727050981       11.683648241226422        0.721094999979213       -0.367884917468176       -0.097034247973393
Mo         -3.344301510221865        9.568020135626588       10.003997551791331        0.001914701379316        0.054982551438686       -0.807599804473741
Se         -3.326623520385295       11.466097698732611        8.334682259148176       -0.179173831571181        0.137307254546760       -0.045743288102348
Se         -3.361757761715134       11.503028418975539       11.673668688003374        0.178124049681596       -0.125595617306367       -0.026588046775401
Mo          4.954287854399686        0.943875066480574       10.002777327015920       -0.009888467174497       -0.029139096471328        0.657154721126085
Se          5.038723691089422        2.813343072202746        8.346977451118029       -0.711921814023630        0.412646043724279       -0.212977682591311
Se          4.870076411602272        2.907490251664352       11.685958568875185        0.757545031554723       -0.426170309502899       -0.035959721983680
Mo          3.294569715920474        3.818589204346238       10.004646833527104       -0.072573275793276        0.031971424978719        0.133354438781271
Se          3.364568660354462        5.690177665962131        8.344664467920245       -0.568805663510323        0.354553741623203       -0.200902491201549
Se          3.224795165378808        5.780086589185317       11.683648241226422        0.606478769405881       -0.377034706374542       -0.065118358847761
Mo          1.634851577441262        6.693304669986414       10.003997551791331       -0.024412378308667        0.051209970085295        0.104853747510002
Se          1.652530895052342        8.591378249768903        8.334682259148176       -0.156432156842855        0.146128970543229       -0.051424400184711
Se          1.617396653722503        8.628314281109875       11.673668688003374        0.147455917477383       -0.143623686504011       -0.024214146166401
Mo         -0.024865233263440        9.568020135626588       10.001177358730427        0.028998971286458        0.005208285999838        0.026426324314331
Se         -0.069029669041117       11.502587597837959        8.322441505933263        0.429736431180233       -0.233483010791198        0.142332477919760
Se          0.019520940857537       11.466527897674103       11.661427934788463       -0.431856820904312        0.208066102028793        0.195324223291567
Mo          8.273725459132622        0.943875066480574       10.004646833527104       -0.031595272418233        0.002166669601651        0.524373895716272
Se          8.343723075792099        2.815462200321956        8.344664467920245       -0.643863140287478        0.459564840716949       -0.151857390944887
Se          8.203949580816445        2.905372451319652       11.683648241226422        0.660850169350189       -0.432997362776025       -0.018964465387179
Mo          6.614007320653410        3.818589204346238       10.003997551791331       -0.027605689861117        0.052043264992018        0.127615219741512
Se          6.631685310489979        5.716664111903238        8.334682259148176       -0.164106131875544        0.134020869018304       -0.049615885413379
Se          6.596551069160141        5.753600143244210       11.673668688003374        0.153193593854556       -0.129028041559606       -0.027983385084189
Mo          4.954287854399686        6.693304669986414       10.001177358730427        0.026099794067019        0.005843605874726        0.035904186130594
Se          4.910126074171031        8.627876115521316        8.322441505933263        0.360524102940390       -0.167080128230390        0.051475308050040
Se          4.998675356295174        8.591817743131973       11.661427934788463       -0.360086243876475        0.159241602521891        0.103925321743827
Mo          3.294569715920474        9.568020135626588        9.997734439423963       -0.008012589470255       -0.021162759571837       -0.056150604126510
Se          3.212563706585471       11.529318354289050        8.314575769731384        0.727085930130876       -0.475488975258095        0.168021152407683
Se          3.376798791373288       11.439807763419100       11.653558215263050       -0.697150305544452        0.409192022194841        0.326390379237346
Mo         11.593157752767514        0.943875066480574       10.003997551791331        0.002330191835738        0.045327540535495        0.074270461748005
Se         11.610838398153104        2.841948646263063        8.334682259148176       -0.121510389668937        0.264908076104139       -0.012469341680415
Se         11.575708140146800        2.878884677604035       11.673668688003374        0.113888608053732       -0.244769130268362        0.012189348421106
Mo          9.933443597611834        3.818589204346238       10.001177358730427        0.015206025107491        0.011739148056505        0.027222338208565
Se          9.889279161834157        5.753160649881141        8.322441505933263        0.482741546294450       -0.166209809421611        0.042135257424768
Se          9.977829771732811        5.717102277491797       11.661427934788463       -0.523350339090644        0.153299266241678        0.101390470005050
Mo          8.273725459132622        6.693304669986414        9.997734439423963       -0.012360326857690       -0.017126640026719       -0.094302706754936
Se          8.191719449797619        8.654600233099853        8.314575769731384        0.788001818984691       -0.404245474613714        0.052315030717536
Se          8.355954534585436        8.565092297778925       11.653558215263050       -0.799508282101182        0.355937767073029        0.230800320554622
Mo          6.614007320653410        9.568020135626588        9.995519711539979       -0.069746860825797        0.023475982119132       -0.139393448583523
Se          6.538672050460582       11.531778720457531        8.315349862271169        0.653822569940919       -0.423748586353742        0.106979279442700
Se          6.689564329189537       11.437338102829044       11.654337618900879       -0.636070380235689        0.386980509175142        0.245897587949820
