# total energy = -38121.414273692986 eV 

 CRYSTAL
 PRIMVEC
       13.277745107833699        0.000000000000000        0.000000000000000
       -6.638872553916849       11.498859207011680        0.000000000000000
        0.000000000000000        0.000000000000000       20.000015178772852
 PRIMCOORD
48 1
Mo          1.634851577441262        0.943875066480574       10.005767475214205       -0.002774478660426        0.006867419610786       -0.342549512712384
Se          1.657055950585092        2.853123196545816        8.320213500304169       -0.483697997097600        0.028721292021027        0.204836280795147
Se          1.612871598189753        2.867711455095793       11.659198601384857        0.564301088760006       -0.092400089565876        0.352337449708378
Mo         -0.024865233263440        3.818589204346238       10.070306610859850       -0.082501080863709       -0.055727657467591       -2.099133890531128
Se          0.009202805134240        5.745583040748100        8.307492092716354       -0.795639541446615       -0.337556685253685        0.364462520521746
Se         -0.058711533317819        5.724679886624838       11.646478521571552        0.915051909998966        0.290319328437063        0.801699120083343
Mo         -1.684584699517163        6.693304669986414       10.099767271705113       -0.142287997815204       -0.101799789811129       -2.943358818783858
Se         -1.655592743074209        8.632828714446537        8.306258590195835       -0.766161316316858       -0.497587873909037        0.343048306948435
Se         -1.713350934293285        8.586863816432240       11.645247674600057        0.805143114305974        0.600727466175868        0.816989991633049
Mo         -3.344301510221865        9.568020135626588       10.079457632788170       -0.073826946254609       -0.046893085949575       -2.317128568961647
Se         -3.334798628048189       11.508607727469849        8.317126424566597       -0.063527102390585       -0.346037987039570        0.480602387508912
Se         -3.353582654052241       11.460518390238299       11.656118164519841        0.065466486371272        0.499919094186498        0.628408232282823
Mo          4.954287854399686        0.943875066480574       10.029907743594755       -0.000193089933647       -0.014628812189999       -0.506489551249532
Se          4.943028326548243        2.875757768631140        8.331972271371665        0.254990555450945       -0.267968461563787       -0.059453701832978
Se          4.965773103917962        2.845075555235958       11.670958700226866       -0.225771497635590        0.266783953808381        0.001420792241453
Mo          3.294569715920474        3.818589204346238        9.959389639327052       -0.011783885271491       -0.014851212712774        1.169194258138192
Se          3.264731967114149        5.733452492817583        8.348318503373921        0.795539011268112        0.095246302036538       -0.533921948680186
Se          3.324631858619120        5.736810434555355       11.687308915552652       -0.673975142629537       -0.174864660748390       -0.259516984587893
Mo          1.634851577441262        6.693304669986414        9.909134701868412       -0.073141232735254       -0.059142341101093        2.622465974781174
Se          1.601379709798924        8.591983714945821        8.355780596124523        0.928944615025143        0.484633364845411       -0.818085539179344
Se          1.668547838975922        8.627708815932957       11.694768352754233       -0.838964191724977       -0.455286523145872       -0.327110288444018
Mo         -0.024865233263440        9.568020135626588        9.904221936178514       -0.078740069479712       -0.045175845381232        2.789971363664363
Se         -0.045216033190217       11.459428287364945        8.350636797669749       -0.037013617640161        0.605317144478830       -0.774572169844662
Se         -0.004291367218852       11.509697830343205       11.689628537622990        0.005342240534366       -0.381912862581035       -0.572995792203583
Mo          8.273725459132622        0.943875066480574        9.938305907870323        0.005109041373490       -0.068836947010651        1.240033838295545
Se          8.273020410867396        2.839008953496189        8.338088000768334        0.072140558937981        0.463592989838708       -0.218102664811520
Se          8.274652245741148        2.881825698145420       11.677078412947067       -0.088261382958807       -0.387833601585048       -0.122198417182170
Mo          6.614007320653410        3.818589204346238       10.005707725361217        0.004123537091643        0.000555615641292       -0.148053442118921
Se          6.636194432728599        5.727822728891862        8.320226778049276       -0.465994658374251        0.039700421643632        0.167723932749500
Se          6.592043274696031        5.742441526255586       11.659218518002518        0.548182321622627       -0.101191466531491        0.302435657495778
Mo          4.954287854399686        6.693304669986414       10.070257483202953       -0.038280400733472       -0.046970219078861       -2.015970493197281
Se          4.988354565022855        8.620282573094146        8.307498731588908       -0.808418701196330       -0.337569540775233        0.326463398599737
Se          4.920446865443350        8.599408630010121       11.646487815993128        0.926962036492055        0.281702786564496        0.739140295575731
Mo          3.294569715920474        9.568020135626588       10.099767271705113       -0.067056971497155       -0.054770692443579       -2.887990087477879
Se          3.323572294559515       11.507537541214159        8.306253279097792        0.055147873445789       -0.366901470069777        0.596893949650341
Se          3.265791531173755       11.461588576493991       11.645238380178480       -0.114199711675186        0.604318527565004        0.832440528760377
Mo         11.593157752767514        0.943875066480574       10.085546806694623        0.038442637415404       -0.145247853096349       -1.946906003455236
Se         11.606168615198680        2.885127873353738        8.314886468966906       -0.000833809127584       -0.239718195852267        0.823423665946814
Se         11.580368628679649        2.835705450513359       11.653868914498572       -0.022910853391894        0.376356963278547        1.020459987598105
Mo          9.933443597611834        3.818589204346238       10.029967493447742        0.003781065997612       -0.005285162018694       -1.030143023538270
Se          9.922202658603542        5.750485184241912        8.331956338077537        0.475640670412358       -0.137266888209101        0.282502657115195
Se          9.944906274963426        5.719777743131025       11.670938783609204       -0.540205984723137        0.105062778290368        0.439254659334156
Mo          8.273725459132622        6.693304669986414        9.959445405856505       -0.015799950202995       -0.022334668916126        1.099232710102549
Se          8.243897004747874        8.608182563977378        8.348306553403324        0.831907024616147        0.093960235660905       -0.488986758662327
Se          8.303775651860670        8.611509966901400       11.687298293356566       -0.722788072167046       -0.188566589834799       -0.199461644346481
Mo          6.614007320653410        9.568020135626588        9.909162585133139       -0.052739777149472       -0.037862339172741        2.563744780565984
Se          6.580530141913028       11.466708475007572        8.355779268350013        0.135518023057750        0.713089609601024       -0.290111583208852
Se          6.647707565511602       11.502408348279003       11.694768352754233       -0.144244093973904       -0.524685770669019       -0.106946369307538
