# total energy = -9517.260995109975 eV 

 CRYSTAL
 PRIMVEC
        6.904334320877699        0.000000000000000        0.000000000000000
       -3.452167160438850        5.979326130238110        0.000000000000000
        0.000000000000000        0.000000000000000       19.999950931310131
 PRIMCOORD
12 1
Se          3.419806545476896        5.960935054907587        8.776120758704037       -0.039933620804508       -0.141751408345803       -8.363710273404594
Se         -0.015743953551897        5.966592466450114        8.757359611053916        0.019024115007160        0.289197041405948       -8.050059973131457
Se          5.141494826467650        2.974987902520029        8.795050372111588        0.226239952840788       -0.174536587838492       -9.129039066146023
Se          1.686177908711616        2.979767773170373        8.751800931492177        0.320267294324173        0.154125104945903       -8.243856703352726
Se          3.411174056275502        5.969939687728876       11.253902000740677        0.383325684399129       -0.252749066713886        8.390177478277447
Se         -0.018197063536105        5.973636958757706       11.268820195907796       -0.248027490759844       -0.149960430185308        7.961555620815401
Se          5.158060395803732        2.973029142873196       11.202954917786920        0.211901675437768        0.132368420278562        9.434150729007174
Se          1.697304243469710        2.976856215387258       11.226682353114048       -0.063557184311007        0.205096733661704        8.576379937699622
Mo          1.698118954919574        0.990916966066688        9.985138051199499        0.262548830789704       -0.500374179649287       -0.160375459522399
Mo          5.159751267278915        0.989844722946656       10.018961694604046       -0.358230420785848       -0.582163578840115       -0.059212275138312
Mo         -0.032520795518198        3.980394995025944        9.972735795458908        0.397390139193183        0.356162738700114       -0.296338540736131
Mo          3.446404803014645        3.959936761999751       10.004097353244632       -1.110948975330699        0.664585469691091       -0.059670703036704
