# total energy = -38122.251937474546 eV 

 CRYSTAL
 PRIMVEC
       13.277745107833699        0.000000000000000        0.000000000000000
       -6.638872553916849       11.498859207011680        0.000000000000000
        0.000000000000000        0.000000000000000       20.000015178772852
 PRIMCOORD
48 1
Mo          1.669766735976821        0.883402904161456       10.000007589386426       -0.060390869353806        0.042991178049414        0.000000000000000
Se          1.684689593703515        2.774289240517075        8.330514374958828       -0.183202752024233        0.348093327824618        0.011416217355227
Se          1.684689593703515        2.774289240517075       11.669498148265003       -0.183202752024233        0.348093327824618       -0.011416217355227
Mo          0.010048597497609        3.758117042027120       10.000007589386426       -0.060398839777166        0.043062654749220        0.000000000000000
Se          0.024971455224303        5.649003378382740        8.330514374958828       -0.183204551797250        0.348112611106939        0.011418274238674
Se          0.024971455224303        5.649003378382740       11.669498148265003       -0.183204551797250        0.348112611106939       -0.011418274238674
Mo         -1.649669540981604        6.632832507667296       10.000007589386426       -0.060406295979664        0.043051599000689        0.000000000000000
Se         -1.634746683254910        8.523717516248404        8.330514374958828       -0.183203780465957        0.348104126462718        0.011412874919624
Se         -1.634746683254910        8.523717516248404       11.669498148265003       -0.183203780465957        0.348104126462718       -0.011412874919624
Mo         -3.309389007235327        9.507546645532960       10.000007589386426       -0.060410152636128        0.043026145068024        0.000000000000000
Se         -3.294464821734122       11.398427670790536        8.330514374958828       -0.183203523355526        0.348185887579761        0.011433443754101
Se         -3.294464821734122       11.398427670790536       11.669498148265003       -0.183203523355526        0.348185887579761       -0.011433443754101
Mo          4.919375351413148        1.004347228799692       10.000007589386426        0.007061280875725       -0.073914106690702        0.000000000000000
Se          4.904674232029754        2.946545411124534        8.330514374958828        0.209867417708058       -0.332728922691659        0.011414160471779
Se          4.904674232029754        2.946545411124534       11.669498148265003        0.209867417708058       -0.332728922691659       -0.011414160471779
Mo          3.259657212933936        3.879062694439867       10.000007589386426        0.007077735943306       -0.073839801776157        0.000000000000000
Se          3.244956093550543        5.821259548990198        8.330514374958828        0.209866389266334       -0.332722237820454        0.011414674692641
Se          3.244956093550543        5.821259548990198       11.669498148265003        0.209866389266334       -0.332722237820454       -0.011414674692641
Mo          1.599939074454723        6.753778160080043       10.000007589386426        0.007073365065980       -0.073849057751671        0.000000000000000
Se          1.585237955071330        8.695973686855863        8.330514374958828        0.209863561051594       -0.332717095611835        0.011412360698762
Se          1.585237955071330        8.695973686855863       11.669498148265003        0.209863561051594       -0.332717095611835       -0.011412360698762
Mo         -0.059779064024489        9.628492297945707       10.000007589386426        0.007083906593649       -0.073826946254609        0.000000000000000
Se         -0.074480183407882       11.570687824721528        8.330514374958828        0.209872559916677       -0.332677757715899        0.011434215085393
Se         -0.074480183407882       11.570687824721528       11.669498148265003        0.209872559916677       -0.332677757715899       -0.011434215085393
Mo          8.308639289893671        0.883402904161456       10.000007589386426       -0.060396782893718        0.042991692270276        0.000000000000000
Se          8.323563475394876        2.774289240517075        8.330514374958828       -0.183206094459835        0.348091013830739        0.011414674692641
Se          8.323563475394876        2.774289240517075       11.669498148265003       -0.183206094459835        0.348091013830739       -0.011414674692641
Mo          6.648921151414458        3.758117042027120       10.000007589386426       -0.060400382439752        0.043052627442412        0.000000000000000
Se          6.663845336915664        5.649003378382740        8.330514374958828       -0.183207894232852        0.348110040002630        0.011415446023934
Se          6.663845336915664        5.649003378382740       11.669498148265003       -0.183207894232852        0.348110040002630       -0.011415446023934
Mo          4.989203012935246        6.632832507667296       10.000007589386426       -0.060399868218890        0.043055455657153        0.000000000000000
Se          5.004127198436451        8.523717516248404        8.330514374958828       -0.183207380011990        0.348105154904442        0.011411075146608
Se          5.004127198436451        8.523717516248404       11.669498148265003       -0.183207380011990        0.348105154904442       -0.011411075146608
Mo          3.329484874456033        9.507546645532960       10.000007589386426       -0.060406810200525        0.043029744614058        0.000000000000000
Se          3.344407732182728       11.398427670790536        8.330514374958828       -0.183204037576388        0.348186401800623        0.011434215085393
Se          3.344407732182728       11.398427670790536       11.669498148265003       -0.183204037576388        0.348186401800623       -0.011434215085393
Mo         11.558247905329997        1.004347228799692       10.000007589386426        0.007064623311327       -0.073916163574150        0.000000000000000
Se         11.543548113721114        2.946545411124534        8.330514374958828        0.209851733971770       -0.332726608697780        0.011417502907381
Se         11.543548113721114        2.946545411124534       11.669498148265003        0.209851733971770       -0.332726608697780       -0.011417502907381
Mo          9.898528439076275        3.879062694439867       10.000007589386426        0.007101390102954       -0.073841858659604        0.000000000000000
Se          9.883828647467391        5.821259548990198        8.330514374958828        0.209871531474953       -0.332721209378731        0.011416988686520
Se          9.883828647467391        5.821259548990198       11.669498148265003        0.209871531474953       -0.332721209378731       -0.011416988686520
Mo          8.238810300597063        6.753778160080043       10.000007589386426        0.007083392372787       -0.073847000868223        0.000000000000000
Se          8.224109181213668        8.695973686855863        8.330514374958828        0.209868446149782       -0.332717866943128        0.011412874919624
Se          8.224109181213668        8.695973686855863       11.669498148265003        0.209868446149782       -0.332717866943128       -0.011412874919624
Mo          6.579092162117849        9.628492297945707       10.000007589386426        0.007089048802268       -0.073824632260730        0.000000000000000
Se          6.564392370508967       11.570687824721528        8.330514374958828        0.209865875045472       -0.332678014826330        0.011433443754101
Se          6.564392370508967       11.570687824721528       11.669498148265003        0.209865875045472       -0.332678014826330       -0.011433443754101
