# total energy = -38122.00529732566 eV 

 CRYSTAL
 PRIMVEC
       13.277745107833699        0.000000000000000        0.000000000000000
       -6.638872553916849       11.498859207011680        0.000000000000000
        0.000000000000000        0.000000000000000       20.000015178772852
 PRIMCOORD
48 1
Mo          1.686695860989309        0.908804558327253       10.000007589386426       -1.935312637013082        0.767482863931963        0.000000000000000
Se          1.663875400472475        2.813932604085534        8.313376789348146       -0.114649912039787        0.248671038168522        0.102744156424023
Se          1.663875400472475        2.813932604085534       11.686638389424706       -0.114649912039787        0.248671038168522       -0.102744156424023
Mo          0.000235016088409        3.750754532364827       10.000007589386426        0.472751006278865        0.413314530844760        0.000000000000000
Se         -0.010758956860878        5.698277090477910        8.389733118139766       -0.090508271014915        0.081261037255218       -0.580639685315850
Se         -0.010758956860878        5.698277090477910       11.610278077309555       -0.090508271014915        0.081261037255218        0.580639685315850
Mo         -1.709768598663192        6.656327477635609       10.000007589386426        0.555328191830136        0.446170672816392        0.000000000000000
Se         -1.698519693007835        8.617188858484020        8.410547311370806        0.051184259042200       -0.042865965269540       -0.720054474065142
Se         -1.698519693007835        8.617188858484020       11.589467867402048        0.051184259042200       -0.042865965269540        0.720054474065142
Mo         -3.396149777093445        9.596583220902561       10.000007589386426        0.213480333483826        0.157560100303451        0.000000000000000
Se         -3.373104922684288       11.529218771200741        8.356298428183727        0.514883435488892       -0.601424235443753       -0.894187655637466
Se         -3.373104922684288       11.529218771200741       11.643718078363634        0.514883435488892       -0.601424235443753        0.894187655637466
Mo          4.907547536071090        0.946416426894214       10.000007589386426        1.257415788980201       -0.275913945211563        0.000000000000000
Se          4.928332518262893        2.894123545664296        8.384570730841839        0.096170356925387       -0.099615893810604       -0.402784830255463
Se          4.928332518262893        2.894123545664296       11.615448431254544        0.096170356925387       -0.099615893810604        0.402784830255463
Mo          3.250591168574307        3.877387043007258       10.000007589386426        0.108385673500020       -0.240710385005319        0.000000000000000
Se          3.270157253765211        5.782760727050034        8.306492278509733        0.082307733819632       -0.154707202961583        0.190657668969749
Se          3.270157253765211        5.782760727050034       11.693528211361162        0.082307733819632       -0.154707202961583       -0.190657668969749
Mo          1.634884771804031        6.753211200363937       10.000007589386426        0.166159929998005       -0.180624191512194        0.000000000000000
Se          1.634985682666851        8.626726262794977        8.250943504076600       -0.031916660456926       -0.056469678171324        0.588057578359308
Se          1.634985682666851        8.626726262794977       11.749067691372719       -0.031916660456926       -0.056469678171324       -0.588057578359308
Mo          0.019147836220007        9.572849251522308       10.000007589386426       -0.002272856209635        0.045413158309003        0.000000000000000
Se         -0.000207132823682       11.454858087498828        8.270026279345579       -0.236391186875720        0.424895041765366        0.902058320149835
Se         -0.000207132823682       11.454858087498828       11.729988899427271       -0.236391186875720        0.424895041765366       -0.902058320149835
Mo          8.303660135478232        0.974501513346303       10.000007589386426       -1.343259048335884        0.072029744342239        0.000000000000000
Se          8.290532428890119        2.847930270434142        8.253077237715429       -0.016231124395705        0.013226531899575        0.561190823876753
Se          8.290532428890119        2.847930270434142       11.746937941057421       -0.016231124395705        0.013226531899575       -0.561190823876753
Mo          6.665851604201456        3.783555873879219       10.000007589386426       -0.022167804246437        0.226999457053827        0.000000000000000
Se          6.643031143684623        5.688656036372774        8.313326333916736       -0.108564622359964        0.165349775030069        0.128977905025569
Se          6.643031143684623        5.688656036372774       11.686688844856116       -0.108564622359964        0.165349775030069       -0.128977905025569
Mo          4.979417314790773        6.625469998005002       10.000007589386426       -0.228076492649094        0.189345120219728        0.000000000000000
Se          4.968411391870888        8.572972639500424        8.389697268227973       -0.002903033875903        0.134595767941918       -0.469057357827777
Se          4.968411391870888        8.572972639500424       11.610317910544877       -0.002903033875903        0.134595767941918        0.469057357827777
Mo          3.269415027813683        9.531007093363991       10.000007589386426       -0.230660709590614        0.061687991477970        0.000000000000000
Se          3.280650655723932       11.491877768633980        8.410560589115912        0.134856220808474       -0.451711659713885       -1.222857061734790
Se          3.280650655723932       11.491877768633980       11.589458572980471        0.134856220808474       -0.451711659713885        1.222857061734790
Mo         11.587527988841792        0.887752693458783       10.000007589386426        0.982520258185647        0.613433092342329        0.000000000000000
Se         11.590127771333906        2.848556980003232        8.411941474607127       -0.189687848424190       -0.130963825994259       -0.933429135161845
Se         11.590127771333906        2.848556980003232       11.588077687489257       -0.189687848424190       -0.130963825994259        0.933429135161845
Mo          9.886716557028345        3.821088075975533       10.000007589386426       -0.075541872829073       -0.078048699530876        0.000000000000000
Se          9.907493572573085        5.768816439137788        8.384610564077162       -0.167469907643717       -0.182358401368980       -0.749831718626098
Se          9.907493572573085        5.768816439137788       11.615408598019222       -0.167469907643717       -0.182358401368980        0.749831718626098
Mo          8.229728322943304        6.752081264255262       10.000007589386426        0.156235210252744       -0.312848115728559        0.000000000000000
Se          8.249302374781273        8.657481503788253        8.306541406166632       -0.097450766871539       -0.071933842151493        0.097726646363953
Se          8.249302374781273        8.657481503788253       11.693477755929752       -0.097450766871539       -0.071933842151493       -0.097726646363953
Mo          6.614005992878898        9.627946582621774       10.000007589386426        0.236883810461429       -0.368586571834250        0.000000000000000
Se          6.614121509261337       11.501468283925368        8.250956781821708        0.020437193935684       -0.044300898584695        0.743502431147299
Se          6.614121509261337       11.501468283925368       11.749058396951142        0.020437193935684       -0.044300898584695       -0.743502431147299
