# total energy = -9527.996123677465 eV 

 CRYSTAL
 PRIMVEC
        7.169928382150800        0.000000000000000        0.000000000000000
       -3.584964191075400        6.209337227152147        0.000000000000000
        0.000000000000000        0.000000000000000       20.000070686449963
 PRIMCOORD
12 1
Se          3.617684876240183        6.167629036760337        8.237412414434747       -0.284402188979084        0.347852158240383        1.629025979482472
Se          0.010640890711950        6.141909786660723        8.272989599066982        0.022334411805695        0.183331307239710        1.941312308919397
Se          5.281608721900243        3.109123290079904        8.479728031030755        1.064512260396068       -0.137573106732367       -0.312749899543935
Se          1.711432508113029        3.103414593102035        8.477391351371011       -0.036407351243971        0.111150124853639       -0.153916074165537
Se          3.604713758804034        6.232888290908996       11.775924073507868       -0.139391648810506       -0.109026392693957       -1.879525329925510
Se         -0.081754391384636        6.205340709071935       11.665920881290397        0.393239091285428        0.503180025782290       -0.210471884331231
Se          5.280491647058303        3.093087745253223       11.559772959564008        0.090265044547232        0.169654574975534        0.973613695746964
Se          1.789713786189352        3.072069817193786       11.512721738541819        0.426367256093010       -0.067031774674921        0.968693630540226
Mo          1.775695142216570        0.975093052144392        9.965935880832308       -0.120235893262697       -0.116871089052800       -0.205917430157309
Mo          5.375435121701906        1.049110373811849       10.056925139973156       -0.112350830566195       -1.002649690935480       -0.876357818582088
Mo         -0.027217765131483        4.177625452194118       10.196562363186896       -0.480118505677856       -0.341280929846056       -2.735769913714916
Mo          3.587367551069097        4.169177842574267        9.932251557292966       -0.823811388476693        0.459264792844026        0.862062735731468
