# total energy = -9520.115657506492 eV 

 CRYSTAL
 PRIMVEC
        8.099322384569499        0.000000000000000        0.000000000000000
       -4.049661192284749        7.014215668096800        0.000000000000000
        0.000000000000000        0.000000000000000       19.999964538468078
 PRIMCOORD
12 1
Se          4.022095958481105        7.008501596154487        8.664514968735197       -0.090144202644684       -0.064796199477775       -0.964753670296284
Se         -0.030591950578757        6.984933377947628        8.617396350830726        0.015862685148148        0.088958409337123       -0.727536387605908
Se          6.029329966810764        3.500758775231136        8.618510817590842       -0.160289584638460       -0.101022544978354       -0.771755010852697
Se          2.004035585919993        3.490712375745316        8.625852043400215        0.044559808788666       -0.036863465148484       -0.773482021617416
Se          4.016425622879669        7.006113105983277       11.349739204215977       -0.063197229707671        0.038673522582401        0.939867180352938
Se         -0.049593770825196        7.008935719834299       11.389195053212406       -0.003014876913368       -0.105008785099868        0.659481056305358
Se          6.043647948922207        3.500733667331744       11.362924901058056        0.091967372710580        0.029197203428724        0.783950015703284
Se          2.016817936507320        3.477806105525505       11.391884028244084       -0.182568203480638        0.065941883558107        0.689130516982130
Mo          1.983321568921456        1.152407225895040       10.004716323167820        0.211786232854269        0.097075899863208        0.020764238403858
Mo          6.027364261268030        1.159075398014257        9.991878897188277       -0.050946431893567        0.026462062664233       -0.159480201001816
Mo         -0.040106224583911        4.648307217627673       10.038603888024857        0.104051048744563        0.091442867431433        0.632276715826960
Mo          4.002600889501447        4.664995061468840        9.986398895662877        0.081933123921732       -0.130061111271179       -0.328462175089975
