# total energy = -9493.667608384396 eV 

 CRYSTAL
 PRIMVEC
        5.178263970089500        0.000000000000000        0.000000000000000
       -2.589131985044750        4.484506054696759        0.000000000000000
        0.000000000000000        0.000000000000000       19.999998575148734
 PRIMCOORD
12 1
Se          2.567119184907899        4.474852735003718        8.332422228230566        0.249146435355356        0.057900240609153       -9.349214812362327
Se         -0.026977719631372        4.469101237212140        8.345306784640941        0.059903902197579        0.291565028475036       -9.392342001829716
Se          3.860903259570791        2.227638412945596        8.340800141507772        0.126047103223123       -0.122389193121938       -9.524273334375657
Se          1.279899077653493        2.227327199280994        8.325351826605806       -0.475145218611910        0.016042919560247       -8.946567279076993
Se          2.583309027210384        4.467066697298292       11.630274722409629       -0.592527957422308       -0.116224199208519       10.188416574125505
Se         -0.030238472453338        4.477891340301366       11.706650491183670        0.541810096701859       -0.074214668784488        7.596955546213095
Se          3.855432941512788        2.235218873571410       11.701869917886484        0.113648466911220       -0.256075561469571        7.519694890153093
Se          1.271062370188536        2.231481720464196       11.682394984921373       -0.143350121005476        0.442136095933860        8.241071940275063
Mo          1.268756489242655        0.742058690400148       10.009063838654010        1.088721521464280        0.280923741958705       -0.323140246279655
Mo          3.876376430139815        0.728068574632157        9.994243129345216       -1.550913259454288        0.770057310677107        1.168451208992735
Mo         -0.031697189413712        2.986175374951363        9.990761782478124        0.449007629311541       -0.408931826438715        1.610704804393541
Mo          2.564488108984697        2.978269201521830        9.981003344026490        0.133651144218592       -0.880790145301307        1.210242966881748
