# total energy = -9525.629244604588 eV 

 CRYSTAL
 PRIMVEC
        7.568240097473099        0.000000000000000        0.000000000000000
       -3.784120048736550        6.554285130414141        0.000000000000000
        0.000000000000000        0.000000000000000       20.000020487584848
 PRIMCOORD
12 1
Se          3.764406296930652        6.529990322877243        8.408637912144776       -0.082944339246674        0.018352542561508        0.607371199711723
Se         -0.015679123009935        6.538828513663072        8.420590433730714       -0.092069702662100        0.005495478351214        0.425645290002891
Se          5.647441951806700        3.271081161713004        8.361751907916920       -0.026462833995526       -0.031860867493409        0.956554675763587
Se          1.857710053037874        3.256740103552302        8.371494503394397       -0.040239067996481        0.022837834029503        0.943218357709994
Se          3.763383827693483        6.531024901298567       11.626503750436408       -0.049280613411415        0.020473703616880       -1.103987453302184
Se         -0.010315511252856        6.531737072691739       11.565683859365095       -0.130931172969528        0.076368225754160       -0.552114568553640
Se          5.641250374582957        3.261259099714504       11.596277713135118       -0.027540898032517       -0.002767279568360       -0.901492420091305
Se          1.867107536766906        3.270480243449265       11.639438629587000       -0.050507544387928       -0.051122038317909       -1.221769484611854
Mo          1.851046974456058        1.078674015428490        9.972525423054442        0.120445695374356        0.037004104554216        0.407231812269246
Mo          5.640628265246944        1.078421236209234        9.984991071318989        0.198160408455422        0.035796971080886        0.174633518470962
Mo         -0.038447416519173        4.361625961734381       10.002920988933912        0.131168485897299       -0.177248845774628       -0.005271020944991
Mo          3.746511950044186        4.343681664463272        9.979396628238936        0.050201582975093        0.046669914095507        0.269980093575572
