# total energy = -9509.467453022808 eV 

 CRYSTAL
 PRIMVEC
        8.895998732938999        0.000000000000000        0.000000000000000
       -4.447999366469499        7.704157302693497        0.000000000000000
        0.000000000000000        0.000000000000000       20.000011039389658
 PRIMCOORD
12 1
Se          4.394718561258308        7.692266021187177        8.364414770252736       -0.012287307495299        0.039980157792510        1.646577623051558
Se         -0.045526163115689        7.685397420565475        8.333763606618394       -0.003946130894284       -0.002373900609000        1.721712747178862
Se          6.622644938333776        3.834788388209408        8.359441906961022        0.023072832963396       -0.005803239537066        1.713387254314135
Se          2.180861206178982        3.823593663403877        8.319528229445947       -0.015693249374149       -0.031846469309275        1.818747766483548
Se          4.413613662567070        7.678731648714884       11.625144360225590        0.026536624689210       -0.029767217254149       -1.609076009813446
Se         -0.029111266253670        7.678830394300819       11.619182261874775       -0.039321955089268        0.018489325310776       -1.655818943271344
Se          6.644430349630872        3.848075451916926       11.656239434196705       -0.042468729653716        0.037008475431542       -1.729429402543089
Se          2.194378676253683        3.839949846674259       11.663851740312481        0.046930881182925       -0.025907218354234       -1.777253228252718
Mo          2.208050047106464        1.265049272618477       10.004054088718188        0.001296865013733       -0.011774372185546       -0.064918841153340
Mo          6.644125216874332        1.270944650978796        9.990672727424101        0.019834527085528       -0.033739316301960       -0.105580598698310
Mo         -0.040608455016120        5.117521127109222        9.989614103574882       -0.025995407232051        0.025060553705102       -0.036433833618359
Mo          4.435758472212975        5.105851355971352       10.017300230831536        0.022040534583115        0.020673221311300        0.078084952101641
