# total energy = -38122.67377874166 eV 

 CRYSTAL
 PRIMVEC
       26.555490215667398        0.000000000000000        0.000000000000000
       -3.319436276958425        5.749422964633285        0.000000000000000
        0.000000000000000        0.000000000000000       20.000028456517960
 PRIMCOORD
48 1
Mo          1.619422837625959        0.934968355062239       10.000008917160937       -0.035531118895279       -0.020513812844109        0.000000000000000
Se          1.668027351367695        2.879507403849592        8.353010858495029       -0.269019014784665       -0.155324010885442       -0.126654140950606
Se          1.668027351367695        2.879507403849592       11.647009631375866       -0.269019014784665       -0.155324010885442        0.126654140950606
Mo         -0.040295300853254        3.809682492927904       10.000008917160937       -0.035506436293908       -0.020499671770406        0.000000000000000
Se          0.008309212888482        5.754221541715257        8.353010858495029       -0.269023899882854       -0.155315269130790       -0.126654140950606
Se          0.008309212888482        5.754221541715257       11.647009631375866       -0.269023899882854       -0.155315269130790        0.126654140950606
Mo          4.994166234056554        0.966898676497558       10.000008917160937        0.290001282833973        0.167428255753902        0.000000000000000
Se          5.029198236749062        2.903601200122267        8.343187982664254       -0.196354464788400       -0.113365388326740       -0.066134716381322
Se          5.029198236749062        2.903601200122267       11.656829851657619       -0.196354464788400       -0.113365388326740        0.066134716381322
Mo          3.334448095577341        3.841615469912244       10.000008917160937        0.289997683287939        0.167434426404245        0.000000000000000
Se          3.369480098269850        5.778317993536954        8.343187982664254       -0.196346494365041       -0.113360760338983       -0.066130345503996
Se          3.369480098269850        5.778317993536954       11.656829851657619       -0.196346494365041       -0.113360760338983        0.066130345503996
Mo          8.350607586630511        0.988262568376062       10.000008917160937        0.049742383745409        0.028718720916718        0.000000000000000
Se          8.356040839928635        2.907876634046990        8.327552110025268       -0.091665267954209       -0.052926953543207        0.050354563681511
Se          8.356040839928635        2.907876634046990       11.672471035394647       -0.091665267954209       -0.052926953543207       -0.050354563681511
Mo          6.690889448151299        3.862979361790748       10.000008917160937        0.049765523684195        0.028732090659128        0.000000000000000
Se          6.696322701449423        5.782590771912655        8.327552110025268       -0.091668610389811       -0.052921040003295        0.050354563681511
Se          6.696322701449423        5.782590771912655       11.672471035394647       -0.091668610389811       -0.052921040003295       -0.050354563681511
Mo         11.671759348256868        0.989255743710128       10.000008917160937       -0.223823629010681       -0.129279238450648        0.000000000000000
Se         11.645150747060770        2.890368599347800        8.313273222936305        0.056500788533470        0.032620628816878        0.138091441361171
Se         11.645150747060770        2.890368599347800       11.686739300287526        0.056500788533470        0.032620628816878       -0.138091441361171
Mo         10.012049176424721        3.863969881575793       10.000008917160937       -0.223870937329977       -0.129197220223173        0.000000000000000
Se          9.985432608581556        5.765082737213465        8.313273222936305        0.056493846551834        0.032616772160414        0.138126151269349
Se          9.985432608581556        5.765082737213465       11.686739300287526        0.056493846551834        0.032616772160414       -0.138126151269349
Mo         14.956843443072305        0.969418792519025       10.000008917160937       -0.390489552336804       -0.225449081155173        0.000000000000000
Se         14.910453657214555        2.859115442912981        8.306910527480630        0.183102736066592        0.105719181220594        0.158392880989311
Se         14.910453657214555        2.859115442912981       11.693109962390263        0.183102736066592        0.105719181220594       -0.158392880989311
Mo         13.297122649044073        3.844132930384689       10.000008917160937       -0.390444043790525       -0.225422855891216        0.000000000000000
Se         13.250730207637300        5.733829580778646        8.306910527480630        0.183106849833487        0.105711982128527        0.158392880989311
Se         13.250730207637300        5.733829580778646       11.693109962390263        0.183106849833487        0.105711982128527       -0.158392880989311
Mo         18.221615243421780        0.937857592397704       10.000008917160937       -0.359978000385043       -0.207825446665420        0.000000000000000
Se         18.176794887035776        2.828457129458994        8.311379816483928        0.226710207819003        0.130891063742299        0.106126444143225
Se         18.176794887035776        2.828457129458994       11.688640673386969        0.226710207819003        0.130891063742299       -0.106126444143225
Mo         16.561894449393545        3.812574385812390       10.000008917160937       -0.359971315513838       -0.207837273745244        0.000000000000000
Se         16.517074093007540        5.703173922873679        8.311379816483928        0.226715607138053        0.130894406177902        0.106108189302628
Se         16.517074093007540        5.703173922873679       11.688640673386969        0.226715607138053        0.130894406177902       -0.106108189302628
Mo         21.491169687559093        0.909060818807834       10.000008917160937       -0.169172492917495       -0.097671881842160        0.000000000000000
Se         21.468539098797301        2.812470724349161        8.324633661650568        0.161234208361786        0.093081946428766        0.004783025347040
Se         21.468539098797301        2.812470724349161       11.675378861573263        0.161234208361786        0.093081946428766       -0.004783025347040
Mo         19.831456860177923        3.783774956673498       10.000008917160937       -0.169224429224548       -0.097701706652150        0.000000000000000
Se         19.808818304769066        5.687184862214826        8.324633661650568        0.161228294821874        0.093091973735573        0.004783025347040
Se         19.808818304769066        5.687184862214826       11.675378861573263        0.161228294821874        0.093091973735573       -0.004783025347040
Mo         24.788400263599179        0.896242483680732       10.000008917160937        0.171108791573011        0.098757659192079        0.000000000000000
Se         24.798401061214395        2.818488198432032        8.340585544623119        0.263564159881542        0.152168751676773        0.065157953854127
Se         24.798401061214395        2.818488198432032       11.659429634149733        0.263564159881542        0.152168751676773       -0.065157953854127
Mo         23.128690091767030        3.770956621546396       10.000008917160937        0.171081023646468        0.098805738842668        0.000000000000000
Se         23.138680267186164        5.693204991846717        8.340585544623119        0.263578558065675        0.152177236320994        0.065182122234637
Se         23.138680267186164        5.693204991846717       11.659429634149733        0.263578558065675        0.152177236320994       -0.065182122234637
