# total energy = -9384.636569484912 eV 

 CRYSTAL
 PRIMVEC
        4.116046478171800        0.000000000000000        0.000000000000000
       -2.058023239085900        3.564599151258733        0.000000000000000
        0.000000000000000        0.000000000000000       19.999952158366341
 PRIMCOORD
12 1
Se          2.037541791810517        3.560062033225844        8.049692826291304       -0.549993150387838       -0.670859992648096      -13.267845174951942
Se         -0.022079296518209        3.554003212809975        8.064713926308743        0.738350709442271       -0.719438951693437      -13.301452079381960
Se          3.067648691321308        1.775975270215656        8.040188874973204        0.183725457530363        0.146960208566503      -12.823596402606931
Se          1.017208444662145        1.767317989658117        8.044501668473032       -0.380774120482339        1.102447618931199      -13.242475317398402
Se          2.040074395208536        3.557771041756094       11.947127432309793        0.605352368607871        0.715887228200237       11.743203202222119
Se         -0.011375106047076        3.555937343050068       12.008565188461578       -0.832900242210923        0.343955135438411       12.727053235556660
Se          3.063266336635999        1.775555021870234       11.936231434072779        0.476210684237784       -0.192398820808171       11.962150989020186
Se          1.010085214627021        1.777803618061259       11.988052047628313       -0.237022650094144       -0.951917432030897       12.724978354378861
Mo          1.011101054897833        0.579950537169759        9.960895864291519        0.621716676206811        0.190204126169546        1.012416544876135
Mo          3.069441641167201        0.585580877147250        9.988548287741173       -0.810555288877559        0.266931535195749        0.712899604992549
Mo         -0.013584188191910        2.361920005871576       10.011792837017353        0.106841211141278        0.306519856691485        1.118658945823721
Mo          2.037175052069312        2.372823412992253       10.021200472847863        0.079048344886426       -0.538290254902097        0.634008097469005
