# total energy = -38121.505081387244 eV 

 CRYSTAL
 PRIMVEC
       13.277745107833699        0.000000000000000        0.000000000000000
       -6.638872553916849       11.498859207011680        0.000000000000000
        0.000000000000000        0.000000000000000       20.000015178772852
 PRIMCOORD
48 1
Mo          1.637419493345116        0.991264666544943       10.000007589386426        0.019481000242966       -1.097682848424757        0.000000000000000
Se          1.635471648137797        2.867659671889872        8.375276309266356       -0.012232542973506       -0.143536011847056       -1.385329256821620
Se          1.635471648137797        2.867659671889872       11.624738869506498       -0.012232542973506       -0.143536011847056        1.385329256821620
Mo          0.056599044071163        3.854482932696246       10.000007589386426       -1.580731384573766       -0.592072871959520        0.000000000000000
Se         -0.017494756954082        5.727678001470186        8.358737549960038       -0.120644184627052        0.140261967619286       -0.829223048827417
Se         -0.017494756954082        5.727678001470186       11.641277628812814       -0.120644184627052        0.140261967619286        0.829223048827417
Mo         -1.678350798189035        6.649792171493532       10.000007589386426       -0.227198203416954        0.779114796938760        0.000000000000000
Se         -1.684195661585504        8.601798624129531        8.288801010928056       -0.043309480762936        0.075227683882447        0.944307991716378
Se         -1.684195661585504        8.601798624129531       11.711218151168328       -0.043309480762936        0.075227683882447       -0.944307991716378
Mo         -3.425093933654011        9.527427413282920       10.000007589386426        1.285548298114344        0.681772787779514        0.000000000000000
Se         -3.351421037148685       11.491147492653049        8.297784733268015        0.082377410746421       -0.142944914966292        0.693375410197183
Se         -3.351421037148685       11.491147492653049       11.702227789955813        0.082377410746421       -0.142944914966292       -0.693375410197183
Mo          5.008439810047475        0.932432305746643       10.000007589386426       -1.393890519951532        0.110318115499071        0.000000000000000
Se          4.959013403883564        2.849755960386469        8.315793338957770       -0.043778964409858        0.141970466432976        0.340215978441044
Se          4.959013403883564        2.849755960386469       11.684217856491548       -0.043778964409858        0.141970466432976       -0.340215978441044
Mo          3.236694680544448        3.761229345480397       10.000007589386426        1.760375728233594        1.246817182795409        0.000000000000000
Se          3.289332973249944        5.735276854995400        8.280246159755078        0.061637597833503        0.002199065515951        1.044783662808093
Se          3.289332973249944        5.735276854995400       11.719767691243263        0.061637597833503        0.002199065515951       -1.044783662808093
Mo          1.574449787171215        6.698552034853029       10.000007589386426        1.294498055105427        0.265332308315214        0.000000000000000
Se          1.629772839937515        8.620522900280598        8.339806140985289        0.075587895596214       -0.146203275457774       -0.256500565011938
Se          1.629772839937515        8.620522900280598       11.660207710013053        0.075587895596214       -0.146203275457774        0.256500565011938
Mo          0.026486445941107        9.625946954208535       10.000007589386426       -1.241205747639834       -1.396045619583790        0.000000000000000
Se         -0.019965745318650       11.485568184158737        8.381786387692726       -0.177647109832176       -0.042476957187506       -1.531203430927774
Se         -0.019965745318650       11.485568184158737       11.618228791080126       -0.177647109832176       -0.042476957187506        1.531203430927774
Mo          8.192537358896262        0.913101236644148       10.000007589386426        2.134033803318415        1.046849030899948        0.000000000000000
Se          8.266632487696016        2.868652847223939        8.307125626951377        0.116394149203380       -0.103232666242836        0.523895927425128
Se          8.266632487696016        2.868652847223939       11.692888224046964        0.116394149203380       -0.103232666242836       -0.523895927425128
Mo          6.616572581008243        3.865978804410608       10.000007589386426       -0.252031985721955       -1.041878057827880        0.000000000000000
Se          6.614626063575434        5.742373809755537        8.375276309266356       -0.073588090664252       -0.178400700505302       -1.339268180226613
Se          6.614626063575434        5.742373809755537       11.624738869506498       -0.073588090664252       -0.178400700505302        1.339268180226613
Mo          5.035753459508800        6.729198398336420       10.000007589386426       -1.917085307231448       -0.821561415095414        0.000000000000000
Se          4.961659658483556        8.602393467110362        8.358737549960038       -0.162936279414702        0.117769175788123       -0.800533895610258
Se          4.961659658483556        8.602393467110362       11.641277628812814       -0.162936279414702        0.117769175788123        0.800533895610258
Mo          3.300804945023113        9.524507637133707       10.000007589386426       -0.058872375148591        0.701027787953672        0.000000000000000
Se          3.294958753852133       11.476518073093237        8.288801010928056        0.035655046122999        0.130714685986665        0.916516925234543
Se          3.294958753852133       11.476518073093237       11.711218151168328        0.035655046122999        0.130714685986665       -0.916516925234543
Mo         11.656888273736094        1.000000095051387       10.000007589386426       -1.425222768398899       -1.438055407118252        0.000000000000000
Se         11.599118132546421        2.859119426236513        8.379193244073166        0.570880544688123        0.353854144140577       -0.880854165798615
Se         11.599118132546421        2.859119426236513       11.620817951376154        0.570880544688123        0.353854144140577        0.880854165798615
Mo          9.987594225485113        3.807146443612308       10.000007589386426       -1.396281904069837        0.273389635000455        0.000000000000000
Se          9.938167819321201        5.724471426026644        8.315793338957770       -0.095884707236597       -0.088102488712477        0.225929363440196
Se          9.938167819321201        5.724471426026644       11.684217856491548       -0.095884707236597       -0.088102488712477       -0.225929363440196
Mo          8.215849095982085        6.635943483346061       10.000007589386426        1.699539543613375        1.389596004423305        0.000000000000000
Se          8.268487388687580        8.609992320635575        8.280246159755078       -0.476326898152575       -0.269450703198238        0.639602563336137
Se          8.268487388687580        8.609992320635575       11.719767691243263       -0.476326898152575       -0.269450703198238       -0.639602563336137
Mo          6.553604202608852        9.573266172718693       10.000007589386426        1.443920610269179        0.079418583907000        0.000000000000000
Se          6.608927255375152       11.495238365920773        8.339806140985289        0.191377321065990        0.059180650555305       -0.177563806052546
Se          6.608927255375152       11.495238365920773       11.660207710013053        0.191377321065990        0.059180650555305        0.177563806052546
