# total energy = -38122.805251282356 eV 

 CRYSTAL
 PRIMVEC
       53.110927513609894        0.000000000000000        0.000000000000000
       -1.659716484800309        2.874735173529163        0.000000000000000
        0.000000000000000        0.000000000000000       19.999981973800079
 PRIMCOORD
48 1
Mo          1.682931271216508        0.902625524186552        9.999996297992791       -0.489682756598920        0.166009006175035        0.000000000000000
Se          1.707229520553985        2.824338214411498        8.330263092263415       -0.220080101135988       -0.131974784208771        0.059983606431175
Se          1.707229520553985        2.824338214411498       11.669740125907669       -0.220080101135988       -0.131974784208771       -0.059983606431175
Mo          5.018265652514701        0.896645233748519        9.999996297992791        0.233377852624938        0.109039248215505        0.000000000000000
Se          5.036169346179538        2.816738040684301        8.330225914614156       -0.120271374502169       -0.030472214055825        0.026055828183326
Se          5.036169346179538        2.816738040684301       11.669766681371426       -0.120271374502169       -0.030472214055825       -0.026055828183326
Mo          8.349579536600114        0.893628533065746        9.999996297992791        0.158839481807879        0.046520275824691        0.000000000000000
Se          8.359973345114527        2.811883701909557        8.330209981335901       -0.070959393618177       -0.013519380680432        0.021903237612985
Se          8.359973345114527        2.811883701909557       11.669787925742432       -0.070959393618177       -0.013519380680432       -0.021903237612985
Mo         11.676129370487557        0.893777243662784        9.999996297992791        0.044548238819273        0.012882003922096        0.000000000000000
Se         11.678360029443128        2.810077930374094        8.330209981335901       -0.014960484645930        0.005880115555922        0.013070465867986
Se         11.678360029443128        2.810077930374094       11.669787925742432       -0.014960484645930        0.005880115555922       -0.013070465867986
Mo         14.997458400200411        0.897064810075877        9.999996297992791       -0.069839163470510       -0.027892367991631        0.000000000000000
Se         14.991409065556612        2.811432259025691        8.330225914614156        0.041636720299148        0.024957452422290        0.002508369364389
Se         14.991409065556612        2.811432259025691       11.669766681371426        0.041636720299148        0.024957452422290       -0.002508369364389
Mo         18.313455092790896        0.903300032965974        9.999996297992791       -0.175210474278023       -0.064124112811261        0.000000000000000
Se         18.299508163225823        2.815867021473077        8.330263092263415        0.095770550205254        0.042146570283730       -0.009050287169586
Se         18.299508163225823        2.815867021473077       11.669740125907669        0.095770550205254        0.042146570283730        0.009050287169586
Mo         21.624347825247330        0.912084580376725        9.999996297992791       -0.276143801936836       -0.096281942852422        0.000000000000000
Se         21.603369008879451        2.823100729800431        8.330316203190929        0.144100112132569        0.056447052453400       -0.020810518281430
Se         21.603369008879451        2.823100729800431       11.669676392794653        0.144100112132569        0.056447052453400        0.020810518281430
Mo         24.930646462473831        0.922866098661988        9.999996297992791       -0.361785486714651       -0.123785816982881        0.000000000000000
Se         24.903979465769247        2.832676630031135        8.330379936303945        0.183346733865567        0.067083453871543       -0.031466460092325
Se         24.903979465769247        2.832676630031135       11.669617970774388        0.183346733865567        0.067083453871543        0.031466460092325
Mo         28.233195468217872        0.934964767949589        9.999996297992791       -0.419401620297600       -0.142022659850460        0.000000000000000
Se         28.202518596486012        2.843999879777037        8.330448980509711        0.211006159806754        0.073388058748970       -0.040170676621847
Se         28.202518596486012        2.843999879777037       11.669548926568620        0.211006159806754        0.073388058748970        0.040170676621847
Mo         31.533057061029726        0.947626413068833        9.999996297992791       -0.448005155741250       -0.150359722684579        0.000000000000000
Se         31.500298240939333        2.856348170423951        8.330523335808230        0.225157003705609        0.074996284494588       -0.046167520313422
Se         31.500298240939333        2.856348170423951       11.669469260177349        0.225157003705609        0.074996284494588        0.046167520313422
Mo         34.831447481149453        0.960049059014267        9.999996297992791       -0.449224887625697       -0.149781738435794        0.000000000000000
Se         34.798678038873561        2.868956704615682        8.330603002199501        0.224742284580480        0.071799373396104       -0.048838126359743
Se         34.798678038873561        2.868956704615682       11.669400215971583        0.224742284580480        0.071799373396104        0.048838126359743
Mo         38.129694501764895        0.971457286244190        9.999996297992791       -0.423452395137283       -0.140273023367817        0.000000000000000
Se         38.098975141291021        2.881028818439526        8.330666735312517        0.209840421112808        0.063981673632512       -0.048218490221143
Se         38.098975141291021        2.881028818439526       11.669325860673062        0.209840421112808        0.063981673632512        0.048218490221143
Mo         41.429125896063887        0.981134097237170        9.999996297992791       -0.370203025113659       -0.120769397406927        0.000000000000000
Se         41.402405788431786        2.891805025632037        8.330725157332783        0.181327645651284        0.052275435711169       -0.044391658566822
Se         41.402405788431786        2.891805025632037       11.669267438652797        0.181327645651284        0.052275435711169        0.044391658566822
Mo         44.731016326306758        0.988468716326799        9.999996297992791       -0.291927297072250       -0.093099429938071        0.000000000000000
Se         44.709963154640363        2.900605506321042        8.330772957167545        0.142000548353398        0.038642412220256       -0.037848969430331
Se         44.709963154640363        2.900605506321042       11.669230261003538        0.142000548353398        0.038642412220256        0.037848969430331
Mo         48.036443944322038        0.992999078443710        9.999996297992791       -0.181299877724741       -0.078545693993911        0.000000000000000
Se         48.022401415087437        2.906883217953151        8.330799512631302        0.099191661599530        0.013198763973032       -0.031474687626116
Se         48.022401415087437        2.906883217953151       11.669198394447031        0.099191661599530        0.013198763973032        0.031474687626116
Mo         51.346301013691949        0.994443695672080        9.999996297992791       -0.000120584792118        0.031143786501478        0.000000000000000
Se         51.340161390471380        2.910239828572011        8.330810134816804        0.427916603549940        0.001840396464770        0.177178911737408
Se         51.340161390471380        2.910239828572011       11.669187772261528        0.427916603549940        0.001840396464770       -0.177178911737408
