# total energy = -38122.54114563492 eV 

 CRYSTAL
 PRIMVEC
       26.555490215667398        0.000000000000000        0.000000000000000
       -3.319436276958425        5.749422964633285        0.000000000000000
        0.000000000000000        0.000000000000000       20.000028456517960
 PRIMCOORD
48 1
Mo          1.686743660871697        1.005404137310276       10.000008917160937       -0.799495169469204       -0.565359869514675        0.000000000000000
Se          1.652415378669904        2.915004127620875        8.309154466403854        0.023317859204095       -0.226781941629240        0.143357320097543
Se          1.652415378669904        2.915004127620875       11.690860712368996        0.023317859204095       -0.226781941629240       -0.143357320097543
Mo          0.022319889526268        3.852713009273371       10.000008917160937       -0.885379052272977       -0.398496999598441        0.000000000000000
Se         -0.028637440648576        5.757987110227838        8.304578955439695        0.289279316743853        0.106213604579319        0.390441472686216
Se         -0.028637440648576        5.757987110227838       11.695438878882179        0.289279316743853        0.106213604579319       -0.390441472686216
Mo          5.001474304963906        0.977998871407707       10.000008917160937       -0.992364759476451       -0.370710303993932        0.000000000000000
Se          4.950516974789061        2.883272972362174        8.304578955439695        0.227117470741635       -0.210082362028336        0.164951253862090
Se          4.950516974789061        2.883272972362174       11.695438878882179        0.227117470741635       -0.210082362028336       -0.164951253862090
Mo          3.328072122376560        3.818812270464050       10.000008917160937       -0.449593841094116        0.272483577841773        0.000000000000000
Se          3.270207709196620        5.721906165671811        8.304940110106628        0.497818501965602        0.233844250946689        0.377707050151487
Se          3.270207709196620        5.721906165671811       11.695080379764267        0.497818501965602        0.233844250946689       -0.377707050151487
Mo          8.307226537814197        0.944098132598386       10.000008917160937       -1.057113136414069       -0.347879154835633        0.000000000000000
Se          8.249362124634256        2.847189372257125        8.304940110106628        0.249192201012066       -0.171182068045833        0.161988313255774
Se          8.249362124634256        2.847189372257125       11.695080379764267        0.249192201012066       -0.171182068045833       -0.161988313255774
Mo          6.627445726477048        3.784869042870384       10.000008917160937       -0.451195896189391        0.288868968496051        0.000000000000000
Se          6.573710692025645        5.688342681588229        8.310171541679114        0.494366023098750        0.224820446151490        0.294603045327190
Se          6.573710692025645        5.688342681588229       11.689848948191781        0.494366023098750        0.224820446151490       -0.294603045327190
Mo         11.606600141914685        0.910154905004720       10.000008917160937       -0.956043026005988       -0.295793209512077        0.000000000000000
Se         11.552859796365238        2.813625888173543        8.310171541679114        0.224094880515338       -0.099891001971725        0.126225537862205
Se         11.552859796365238        2.813625888173543       11.689848948191781        0.224094880515338       -0.099891001971725       -0.126225537862205
Mo          9.924262036869766        3.757344277261845       10.000008917160937       -0.369080995192975        0.212459605072938        0.000000000000000
Se          9.884904144821126        5.663685908922982        8.319272108176024        0.401939451158486        0.173869129159735        0.155192884565656
Se          9.884904144821126        5.663685908922982       11.680740415047808        0.401939451158486        0.173869129159735       -0.155192884565656
Mo         14.903413796758382        0.882630139396181       10.000008917160937       -0.678105364592384       -0.191667341632106        0.000000000000000
Se         14.864063871356807        2.788969115508296        8.319272108176024        0.154019689669212       -0.011343455103267        0.064692326863669
Se         14.864063871356807        2.788969115508296       11.680740415047808        0.154019689669212       -0.011343455103267       -0.064692326863669
Mo         13.222820387420633        3.741477371857984       10.000008917160937       -0.218450021003739        0.094757277996863        0.000000000000000
Se         13.205360152603832        5.652628202797178        8.330515702733337        0.225844259887550        0.086737746544972       -0.020642110949155
Se         13.205360152603832        5.652628202797178       11.669499476039515        0.225844259887550        0.086737746544972        0.020642110949155
Mo         18.201985425054357        0.866763233992319       10.000008917160937       -0.255989943696063       -0.047208303337925        0.000000000000000
Se         18.184514568041468        2.777911409382492        8.330515702733337        0.052735663382577        0.079652040178306       -0.012825439627286
Se         18.184514568041468        2.777911409382492       11.669499476039515        0.052735663382577        0.079652040178306        0.012825439627286
Mo         16.527114723858084        3.740290341445343       10.000008917160937       -0.025294009976409       -0.042767491974484        0.000000000000000
Se         16.534884860295190        5.657272758035898        8.341756641741629       -0.004228181037041       -0.020534638789016       -0.207830331763608
Se         16.534884860295190        5.657272758035898       11.658261192580245       -0.004228181037041       -0.020534638789016        0.207830331763608
Mo         21.506269139295721        0.865573548030657       10.000008917160937        0.243168617835672        0.114680765291501        0.000000000000000
Se         21.514039275732827        2.782558620170234        8.341756641741629       -0.063036792798756        0.160648510800072       -0.095836370475578
Se         21.514039275732827        2.782558620170234       11.658261192580245       -0.063036792798756        0.160648510800072        0.095836370475578
Mo         19.839997105831284        3.754006252141735       10.000008917160937        0.171721999950837       -0.170199649089157        0.000000000000000
Se         19.871547683756518        5.676740587913003        8.350859863787559       -0.238941208129924       -0.129989634571374       -0.374519395028518
Se         19.871547683756518        5.676740587913003       11.649160626083335       -0.238941208129924       -0.129989634571374        0.374519395028518
Mo         24.819162143465007        0.879289458727049       10.000008917160937        0.756277220019688        0.284127337928394        0.000000000000000
Se         24.850702099194155        2.802026450047340        8.350859863787559        0.133915967962475        0.346753011148054        0.112679417696954
Se         24.850702099194155        2.802026450047340       11.649160626083335        0.133915967962475        0.346753011148054       -0.112679417696954
Mo         23.162739541321557        3.780014699258960       10.000008917160937        0.478378125170727       -0.245445844922633        0.000000000000000
Se         23.212090264338354        5.707321890445367        8.356088639811023        0.076844137161856        0.161341423411494       -0.004567052585039
Se         23.212090264338354        5.707321890445367       11.643929194510848        0.076844137161856        0.161341423411494        0.004567052585039
