# total energy = -38122.78893981912 eV 

 CRYSTAL
 PRIMVEC
       53.110927513609894        0.000000000000000        0.000000000000000
       -1.659716484800309        2.874735173529163        0.000000000000000
        0.000000000000000        0.000000000000000       19.999981973800079
 PRIMCOORD
48 1
Mo          1.634849948538437        0.943876781586372       10.093938906578863        0.199789460145948        0.116491851167142       -1.233786826154652
Se          1.633113221208742        2.861483997114517        8.425151075359230        0.114088382858583        0.051258049735884        0.063497534691025
Se          1.636815052856441        2.859343626735719       11.764139488470359       -0.112428477916343       -0.047950838262520        0.075734962762720
Mo          4.954282918139056        0.943876781586372       10.096987473818146        0.013954411529606        0.005330413454542       -0.115683495972223
Se          4.948594737802348        2.854510532331980        8.422182174511219        0.031213720538697        0.038289399598556        0.073336893773210
Se          4.960194164371321        2.866317091518256       11.761159965436846       -0.034338383606083       -0.038893866221729        0.077463001969163
Mo          8.273715887739673        0.943876781586372       10.093938906578863       -0.000536846579832       -0.000488509818813       -0.162541100682326
Se          8.264448030888548        2.847914155134790        8.413445426935230        0.034468995705008        0.074667954474260        0.108159673431211
Se          8.283212121579108        2.872918779808197       11.752428528953608       -0.037204393579929       -0.075752960492887        0.113640239377430
Mo         11.593148857340292        0.943876781586372       10.084989715292821        0.001894903876132        0.002924888262535       -0.253675949817476
Se         11.580890855270150        2.842098508572049        8.399498497370155        0.037775178736647        0.107646223900596        0.146767375743288
Se         11.605640547491493        2.878729115278186       11.738486910481285       -0.041997960454638       -0.110138395307834        0.155673938181971
Mo         14.912587138033661        0.943876781586372       10.070697564698907        0.004532599787291        0.003725530144526       -0.329445622488374
Se         14.898109099193453        2.837435369136355        8.381223027212723        0.037942043406337        0.133139237350563        0.176404495119374
Se         14.927288242769428        2.883397565806633       11.720206129231101       -0.042723783201222       -0.137178699331283        0.188102248396496
Mo         18.232020107634280        0.943876781586372       10.051970651657609        0.002954970182956        0.004469093510845       -0.385710640756659
Se         18.216235539977234        2.834211535836279        8.359755590311723        0.035968206627901        0.150256878512198        0.195019033210024
Se         18.248017119001378        2.886616088013958       11.698738692330100       -0.040649416244284       -0.155506045070558        0.208515016841239
Mo         21.551447766142150        0.943876781586372       10.029966794388720        0.002880922378841        0.006446272724883       -0.415729826233143
Se         21.535376399476529        2.832639452381875        8.336450515318749        0.031707629676560        0.158228587423932        0.201510043149893
Se         21.567758131981577        2.888188171468360       11.675438928429880       -0.036138413733193       -0.163967806463690        0.215153865278907
Mo         24.870886046835516        0.943876781586372       10.006088121378601        0.006595396774836        0.005646402174184       -0.418554698538037
Se         24.855526366598582        2.832809407349919        8.312773663833182        0.025574260346149        0.156380734756664        0.195260202794259
Se         24.886468792968010        2.888018216500317       11.651756765851561       -0.029029824538172       -0.161928149414931        0.208484934920818
Mo         28.190319016436138        0.943876781586372        9.981827049690384        0.003398485676352        0.003395400351181       -0.393228292647328
Se         28.176648263694130        2.834716089647658        8.290206830732648        0.017896428656995        0.144934692591447        0.177091751301315
Se         28.204218146166443        2.886111534202578       11.629189932751029       -0.020032245006932       -0.149597390256800        0.188698744596309
Mo         31.509757297129504        0.943876781586372        9.958702551850958        0.001355743302421        0.004469864842138       -0.346772808651237
Se         31.498635868908153        2.838237344141810        8.270178699967268        0.009001693298136        0.124574374674618        0.147977851652220
Se         31.521096480153659        2.882590279708426       11.609156490892895       -0.010210626544483       -0.127800339251799        0.157137667865393
Mo         34.829184955637373        0.943876781586372        9.938175178366949        0.003245504969934        0.003177627816162       -0.279164849500548
Se         34.821324538365360        2.843150104936819        8.253937378333605       -0.000833809127584        0.096301997466036        0.109621860452047
Se         34.837263127712191        2.877677518913416       11.592920480351985        0.000163522234087       -0.097888625935454        0.115485006719526
Mo         38.148612614145236        0.943876781586372        9.921535524776933        0.001998776490238        0.000237570038202       -0.194637738440919
Se         38.144523072726692        2.849151639745857        8.242507906732676       -0.010690651719074        0.061658166667979        0.063916881803912
Se         38.152935843644848        2.871675984104379       11.581491008751055        0.010458738110353       -0.062029434130277        0.067090910074041
Mo         41.468056205931362        0.943876781586372        9.909824565260184       -0.001001702238997       -0.000075847577131       -0.096885638144302
Se         41.467987161725596        2.855859549890826        8.236607282685915       -0.020816688931773        0.022598464218285        0.013593685594977
Se         41.468343004939932        2.864973385052161       11.575590384704293        0.020409683119572       -0.022156748497906        0.015498359667486
Mo         44.787483864439231        0.943876781586372        9.903775230616384        0.001908530728973        0.000314188946626        0.007392953331656
Se         44.791456561817242        2.862848947951617        8.236607282685915       -0.030054152495094       -0.018305491352643       -0.038105822750854
Se         44.783744855142267        2.857978675898619       11.575590384704293        0.028796368266866        0.018825111533602       -0.035976434161692
Mo         48.106922145132593        0.943876781586372        9.903775230616384        0.002275941534806       -0.000918398459368        0.127306944334798
Se         48.114681651642336        2.869689635415370        8.242507906732676       -0.022681510887483       -0.050292342957220       -0.079211610010082
Se         48.099385704518411        2.851137988434866       11.581491008751055        0.022881285692335        0.051179888164873       -0.075504848927016
Mo         51.426355114733212        0.943876781586372        9.909824565260184       -0.003175313822284       -0.002212178147930        0.164080935053310
Se         51.437434054212552        2.875946102676473        8.253937378333605        0.410112734648088        0.161677723855182        0.471317358515864
Se         51.415504552242190        2.844881521173762       11.592920480351985       -0.620701090004542       -0.285165035627725        0.625682861714709
