# total energy = -9529.613885259962 eV 

 CRYSTAL
 PRIMVEC
        6.904334320877699        0.000000000000000        0.000000000000000
       -3.452167160438850        5.979326130238110        0.000000000000000
        0.000000000000000        0.000000000000000       19.999950931310131
 PRIMCOORD
12 1
Se          3.428644093407619        5.952773441306878        8.272580752348107       -0.073432795963956        0.025606399150018        1.373254579652720
Se         -0.021005056304406        5.954501596187393        8.280321891988674        0.064935039110490        0.067185012491770        1.287301019922158
Se          5.165171860154236        2.966232516167724        8.234506800735627       -0.081999201302487        0.035405391894543        1.768824891215610
Se          1.699539176489378        2.973263890240106        8.282804000177030        0.028596593462015        0.100158653930348        1.232589462877698
Se          3.426924914161721        5.964869144603623       11.715679760089914        0.084858783515559        0.019616240329648       -1.311601555193360
Se         -0.032993742419178        5.964229803245510       11.737424270600087       -0.005047334870061        0.033774797541432       -1.502499108195189
Se          5.163945650378848        2.965020115060978       11.747397581526595       -0.048222861098470        0.086552112813823       -1.449806125144150
Se          1.712240389906065        2.964720466951452       11.710533269287133       -0.091827761746572        0.012199632838344       -1.284402356923581
Mo          1.703650707577461        0.984009179578650        9.960296256312981       -0.016310057298008       -0.134108029454398        0.543295937882344
Mo          5.155722588202683        0.990814091485307       10.018479081635018       -0.037255301445258       -0.106737595637604       -0.312565551364941
Mo         -0.033138733439917        3.972649022351351       10.003796324268240        0.058196688936044       -0.103744830221297       -0.033959145720426
Mo          3.434113016623187        3.964826411565796       10.015350037320797        0.117507694479842       -0.035907785676627       -0.310431791898452
