# total energy = -9524.652049491306 eV 

 CRYSTAL
 PRIMVEC
        7.169928382150800        0.000000000000000        0.000000000000000
       -3.584964191075400        6.209337227152147        0.000000000000000
        0.000000000000000        0.000000000000000       20.000070686449963
 PRIMCOORD
12 1
Se          3.549627199043969        6.187717025108609        8.123936108908962        0.046712337316614        0.007690687210701        2.934505478204382
Se         -0.041281579653071        6.200992864500999        8.114663240532327        0.063333498236077       -0.029195403655707        3.009038449702392
Se          5.352357990211116        3.091148996618689        8.120836548869358        0.018367712076934       -0.031037857003924        2.940932467646944
Se          1.755164052294281        3.099078937409348        8.135809510309803        0.065557246353399       -0.053486425840963        2.887205900663469
Se          3.555243403945708        6.195461264754170       11.891613735925224        0.046220999283061       -0.014166013414281       -3.101976414289823
Se         -0.010357678540855        6.185410459148071       11.893171044369828       -0.054460617263849        0.026462319774664       -3.083581191396777
Se          5.342864288040309        3.082378740221642       11.934307074476742        0.054508182693575       -0.000507021769842       -3.277418030845274
Se          1.763494792081503        3.099223769962668       11.921576149641396        0.030382482515422       -0.066418823407527       -3.206964116334353
Mo          1.770144900655947        1.020483000760435       10.013397221757957       -0.042538920801366        0.011343712213698        0.063496506249302
Mo          5.353420573597350        1.013860854906681        9.997211108435252       -0.034952877536063        0.036201405788777        0.167359093047976
Mo         -0.016484382343403        4.120692635875649        9.993166551834880       -0.095686475094332        0.039205998284907        0.240702671692391
Mo          3.568423883290616        4.114204567682640        9.965549421692511       -0.097443567779472        0.073907164709067        0.426699185659372
