# total energy = -9491.102636198128 eV 

 CRYSTAL
 PRIMVEC
        5.974940318459000        0.000000000000000        0.000000000000000
       -2.987470159229500        5.174447689293456        0.000000000000000
        0.000000000000000        0.000000000000000       20.000067101485772
 PRIMCOORD
12 1
Se          2.967115330046606        5.169482513888816        8.740038733880283        0.240844339539847       -0.909017528184472      -19.047300711602908
Se         -0.028781885008049        5.153411119420225        8.754656425369394       -0.053691085744003        0.046951964238263      -19.159062759282218
Se          4.451809129971464        2.569775226434732        8.750324593638512        0.090226477982589        0.615180929051956      -19.501734142338872
Se          1.469756449128710        2.578674302545045        8.750012701753887       -0.534137921442187        0.640685255360885      -18.900167981937233
Se          2.968775765961106        5.171073043001590       11.246568022056064       -0.240424478206098       -0.068016507625476       20.157064922067768
Se         -0.027834856967573        5.166244096236211       11.257008632768539        0.306469720157449        0.915431147884623       19.636462836373596
Se          4.457510418023337        2.576364390617929       11.197787414308101       -0.373508693924437       -0.964994325659657       22.533993263502460
Se          1.476860055673326        2.581898977834917       11.231971840352101       -0.593837163736727       -0.380969781520296       21.041206501836566
Mo          1.462985049265801        0.857205567680294       10.002459974006213        0.642353644947346       -0.408687571529309       -0.909105202841427
Mo          4.467394164298132        0.847559026536141        9.991339415085497       -0.901421457612362       -1.054798371204188       -0.706266927205225
Mo         -0.039381429132995        3.446336613276674       10.029025156156113        1.591827242332024       -0.040376107856180       -2.429106075182097
Mo          2.960533933285823        3.433610587892387       10.020748071332951       -0.174700624293441        1.608610639933419       -2.715983466279976
