# total energy = -9523.263651270176 eV 

 CRYSTAL
 PRIMVEC
        7.833781241021299        0.000000000000000        0.000000000000000
       -3.916890620510650        6.784250399255471        0.000000000000000
        0.000000000000000        0.000000000000000       19.999996028483224
 PRIMCOORD
12 1
Se          3.881684040857252        6.768867986410601        8.511039047541933        0.074040605022732       -0.029667458406939       -0.268678857684513
Se         -0.017630708061043        6.764365912331386        8.463205195906134       -0.009457035871356       -0.005540215566200        0.032549923448366
Se          5.868330180202129        3.362006660890381        8.512144394075042       -0.052595023976845        0.015565465489965       -0.324514244422674
Se          1.914510331543181        3.381023164852960        8.511999469122083        0.099552644644589       -0.037628368680572       -0.120172644096682
Se          3.909710176625130        6.755282642982421       11.480895236666154       -0.025265984939435        0.041285764560895        0.438394110721753
Se         -0.034919079881852        6.771032460167495       11.485092576655093        0.077163982537963       -0.035153680782639        0.180447556646128
Se          5.834634736950124        3.385081063535809       11.481390331640586        0.073672165775175       -0.073117321465175        0.397396309843526
Se          1.928411376355373        3.372764009290551       11.532636578384974        0.025365486676214       -0.006385337552747        0.056144690586598
Mo          1.943941847665698        1.114284877504111       10.015537886089426       -0.051996470893584        0.016635301993165       -0.118572902995285
Mo          5.859656617612070        1.105807942823201        9.975988258116004       -0.108372303757610        0.015945988927777       -0.155802750507879
Mo         -0.024521302040645        4.492407976541644        9.986198025207427        0.010333268220048        0.136004218882685       -0.066482586794403
Mo          3.897433858042325        4.504996079617841       10.039992600989521       -0.112441076327460       -0.037944357400215       -0.050708347634504
