# total energy = -38121.55774224161 eV 

 CRYSTAL
 PRIMVEC
       13.277745107833699        0.000000000000000        0.000000000000000
       -6.638872553916849       11.498859207011680        0.000000000000000
        0.000000000000000        0.000000000000000       20.000015178772852
 PRIMCOORD
48 1
Mo          1.563123870594233        0.890515792215723       10.000007589386426        1.289679805629346        1.406752469260014        0.000000000000000
Se          1.632689960537706        2.860548111610117        8.278348769979170       -0.030399451803865       -0.026168699662515        1.084839668177735
Se          1.632689960537706        2.860548111610117       11.721667736568193       -0.030399451803865       -0.026168699662515       -1.084839668177735
Mo         -0.100875012907745        3.792206324816973       10.000007589386426        1.699504833705196        0.723967951934695        0.000000000000000
Se         -0.030811007522728        5.743927305933153        8.307457570579073        0.078404026146455       -0.096209694821323        0.514437348891187
Se         -0.030811007522728        5.743927305933153       11.692558935968290        0.078404026146455       -0.096209694821323       -0.514437348891187
Mo         -1.693584355151253        6.718642590975692       10.000007589386426        0.443616280684863       -0.225776639844209        0.000000000000000
Se         -1.688631756226031        8.619057037220694        8.358191834636106        0.036097790285102       -0.114362976798842       -0.820113883369142
Se         -1.688631756226031        8.619057037220694       11.641818033038703        0.036097790285102       -0.114362976798842        0.820113883369142
Mo         -3.277851707055200        9.621314348940412       10.000007589386426       -1.143884821535927       -1.273907109132032        0.000000000000000
Se         -3.342551503416652       11.485548267541077        8.382966779232813        0.079586219907982        0.505790982208629       -0.685184128977414
Se         -3.342551503416652       11.485548267541077       11.617048399540039        0.079586219907982        0.505790982208629        0.685184128977414
Mo          4.995354592243705        0.991669637770732       10.000007589386426       -0.523669156025027       -1.010114892298234        0.000000000000000
Se          4.953616000497229        2.865292249937146        8.378805533916017       -0.044074384295024       -0.128183176683490       -1.470626413621956
Se          4.953616000497229        2.865292249937146       11.621208317082324       -0.044074384295024       -0.128183176683490        1.470626413621956
Mo          3.378996258188634        3.864169047752410       10.000007589386426       -2.124703265779089       -1.164022481819550        0.000000000000000
Se          3.299441320600538        5.730033473452316        8.373510369167013       -0.125370902789713        0.042804001655680       -1.274962290340668
Se          3.299441320600538        5.730033473452316       11.626508792929371       -0.125370902789713        0.042804001655680        1.274962290340668
Mo          1.683454763408487        6.693919429584906       10.000007589386426       -1.191407313820477       -0.244609978911601        0.000000000000000
Se          1.640802662798593        8.599557340755329        8.327889364751007       -0.035818311246655        0.112150798650912        0.049795348494185
Se          1.640802662798593        8.599557340755329       11.672128469570866       -0.035818311246655        0.112150798650912       -0.049795348494185
Mo         -0.057671885875876        9.523092229505211       10.000007589386426        0.933993235447359        1.043460572530403        0.000000000000000
Se         -0.023311737085824       11.478727489879182        8.284730054277995        0.035940438701358       -0.151077060786942        0.576457784156380
Se         -0.023311737085824       11.478727489879182       11.715287780043878        0.035940438701358       -0.151077060786942       -0.576457784156380
Mo          8.273605959426652        0.913613757605310       10.000007589386426       -0.291488923787473        0.500751103541066        0.000000000000000
Se          8.277483060998138        2.851756916574220        8.298192360042828       -0.064381223242215        0.104374493666704        0.726476578409515
Se          8.277483060998138        2.851756916574220       11.701818835406492       -0.064381223242215        0.104374493666704       -0.726476578409515
Mo          6.542306169296596        3.765229930081387       10.000007589386426        2.144796188847725        1.328927970024930        0.000000000000000
Se          6.611848359298875        5.735255610603227        8.278344786655637        0.010079757335127       -0.000457142346236        1.059590138305881
Se          6.611848359298875        5.735255610603227       11.721667736568193        0.010079757335127       -0.000457142346236       -1.059590138305881
Mo          4.878256830363209        6.666891251643399       10.000007589386426        1.967529088232500        1.008259583428468        0.000000000000000
Se          4.948343407914909        8.618637460475286        8.307428359539836        0.079584420134965       -0.104066475370421        0.529546186255777
Se          4.948343407914909        8.618637460475286       11.692588147007527        0.079584420134965       -0.104066475370421       -0.529546186255777
Mo          3.285516949305953        9.593327517802120       10.000007589386426        0.211756665154709       -0.446550424922912        0.000000000000000
Se          3.290518675888074       11.493777813958911        8.358163951371379       -0.112142571117122       -0.086039691724932       -0.616834149122991
Se          3.290518675888074       11.493777813958911       11.641848571852451       -0.112142571117122       -0.086039691724932        0.616834149122991
Mo         11.552308769943263        0.949024176033392       10.000007589386426        0.927909488430121       -0.001837568250029        0.000000000000000
Se         11.587678027361513        2.870693636647012        8.338774460190409       -0.222467628597829       -0.178890752986701       -0.466187491197467
Se         11.587678027361513        2.870693636647012       11.661238063033421       -0.222467628597829       -0.178890752986701        0.466187491197467
Mo          9.974462535573466        3.866369170116778       10.000007589386426       -1.086076626461055       -1.209076971077371        0.000000000000000
Se          9.932766432611334        5.740011698900853        8.378792256170909        0.311833815078445        0.200569276083032       -1.087674824899866
Se          9.932766432611334        5.740011698900853       11.621217611503898        0.311833815078445        0.200569276083032        1.087674824899866
Mo          8.358148018077250        6.738901774461226       10.000007589386426       -2.048718134567050       -1.161290683490662        0.000000000000000
Se          8.278594408263665        8.604754250190535        8.373530285784675        0.566758036038204        0.411772896700759       -0.747376571120916
Se          8.278594408263665        8.604754250190535       11.626488876311708        0.566758036038204        0.411772896700759        0.747376571120916
Mo          6.662652995404979        9.568668089587851       10.000007589386426       -1.385348540103942       -0.057796625105479        0.000000000000000
Se          6.619958406010740       11.474267495297461        8.327922559113777       -0.475374046895459       -0.100574915718063       -0.219958230791716
Se          6.619958406010740       11.474267495297461       11.672088636335541       -0.475374046895459       -0.100574915718063        0.219958230791716
