# total energy = -9530.246377835832 eV 

 CRYSTAL
 PRIMVEC
        6.572434350304899        0.000000000000000        0.000000000000000
       -3.286217175152450        5.691892458222800        0.000000000000000
        0.000000000000000        0.000000000000000       20.000068893967864
 PRIMCOORD
12 1
Se          3.274767337270783        5.676510990112781        8.259286431943012       -0.195548166476928       -0.086592993372345        0.988891197554260
Se         -0.029418216151965        5.669849170655313        8.249120847733396       -0.015260275408422        0.058883688007553        0.995024052663810
Se          4.903803028416135        2.825841809677252        8.249482331622664        0.000869804587918        0.123847266375879        1.083214730254104
Se          1.620543448721323        2.834798723209848        8.249358769856878        0.038575820618639        0.078849598523298        1.130323788965681
Se          3.268216591953835        5.667305638561745       11.786483227036262       -0.128807955030709        0.191297616832394       -1.406563235982832
Se         -0.032714949222078        5.685283875483569       11.733852487245890        0.007604555216331        0.014927831621199       -0.957639167561351
Se          4.891133346719053        2.833401423666973       11.807345448150999        0.203717079089204       -0.067939631606621       -1.484994772945399
Se          1.627244702784894        2.837821385767553       11.795802938944995       -0.133986930441418       -0.066723242157776       -1.421806027881949
Mo          1.605261881613429        0.940914959537130        9.989258283623172        0.154232577106042        0.043575332948542        0.474419910086188
Mo          4.893380462023422        0.944469332033775        9.987467295262714        0.280045195616135       -0.125505885765964        0.516440496258750
Mo         -0.024323922287043        3.783213487584111       10.008031785101384       -0.074455067037430       -0.217777420116363        0.188885406769182
Mo          3.271877437886954        3.774284835519221       10.027901568629225       -0.136986123618499        0.053157838710204       -0.106196378180445
