# total energy = -38122.84813929985 eV 

 CRYSTAL
 PRIMVEC
       53.110927513609894        0.000000000000000        0.000000000000000
       -1.659716484800309        2.874735173529163        0.000000000000000
        0.000000000000000        0.000000000000000       19.999981973800079
 PRIMCOORD
48 1
Mo          1.634849948538437        0.943876781586372        9.937336025712234        0.154057484902562        0.088945039594714        1.045369617480237
Se          1.616824099740318        2.849942992565810        8.256895656996113       -0.011032094371381       -0.006369396706027       -0.048613411843089
Se          1.653104174324865        2.870889942377178       11.595878759014493        0.006083489906806        0.003512385597265       -0.042135257424768
Mo          4.954282918139056        0.943876781586372        9.905995267386452        0.006275294288298        0.003623200193006        0.072987737807975
Se          4.960188853278569        2.863757144812099        8.239698338667207       -0.011856904633882       -0.006845565224155       -0.035017926475095
Se          4.948605359987851        2.857070479038136       11.578676129592832        0.011454012588577        0.006613137394572       -0.034701166424159
Mo          8.273715887739673        0.943876781586372        9.917796515479976        0.001950439729218        0.001126143687579        0.030745779554361
Se          8.300892749348389        2.876041702345998        8.264182476250982       -0.036404008808369       -0.021017749288779       -0.014910862332756
Se          8.246767403119268        2.844791232596990       11.603160267176609        0.039739502429137        0.022943506416626       -0.023646446334854
Mo         11.593148857340292        0.943876781586372        9.967327766479169        0.002170783368546        0.001253156240471        0.013827656087146
Se         11.629179310565524        2.881150973572807        8.319104486392805       -0.049018617882273       -0.028300916466417        0.006323373938887
Se         11.557346781103368        2.839676650277429       11.658087588411183        0.050245034637924        0.029008998593265       -0.010239165802319
Mo         14.912587138033661        0.943876781586372       10.031857543408204       -0.001593570451054       -0.000919941121954       -0.015741843245599
Se         14.940980239882439        2.876742766589177        8.379263233987471       -0.038803877570895       -0.022403574511622        0.021146818725118
Se         14.884417102080443        2.844084857261058       11.718246336005850        0.036231230598768        0.020918247552000        0.011720378995045
Mo         18.232020107634280        0.943876781586372       10.081760570899993       -0.004409443890864       -0.002545650376877       -0.031161012900352
Se         18.239795547422275        2.864840607733377        8.417041036727902       -0.009164701311361       -0.005291332669037        0.027218738662531
Se         18.224457111556340        2.855987016116859       11.756029449839032        0.007366985178130        0.004253377859275        0.026698090039849
Mo         21.551447766142150        0.943876781586372       10.094140728103415        0.000837408673618        0.000483367610194       -0.036408893906557
Se         21.535094911560705        2.850909611446558        8.415107798966407        0.025965325311630        0.014991080787213        0.027028219833194
Se         21.568028997711895        2.869918012403678       11.754090900984785       -0.023927210925456       -0.013814286344736        0.023635133475892
Mo         24.870886046835516        0.943876781586372       10.063309834681766        0.005005425869816        0.002889921243925       -0.025270098706330
Se         24.837957271777078        2.841339022308605        8.374339851006958        0.048071165944207        0.027753785469347        0.019008431270872
Se         24.904037887789514        2.879488601541631       11.713328264118090       -0.045055260589114       -0.026012633630925        0.005490593253026
Mo         28.190319016436138        0.943876781586372       10.003427263910170       -0.001439304192481       -0.000830980912844       -0.001443932180239
Se         28.155977490705833        2.840521114024895        8.313458794798109        0.046464997082036        0.026826645255326        0.000679799979443
Se         28.224888919154747        2.880306509825340       11.652436585723736       -0.047181306742674       -0.027240078828301       -0.014431865599888
Mo         31.509757297129504        0.943876781586372        9.941967298591420       -0.004847817175641       -0.002798904151367        0.024495424977865
Se         31.489814143848147        2.848838285273526        8.260400978212012        0.024271481792504        0.014013032707864       -0.020311466934948
Se         31.529918205213672        2.871989338576709       11.599378769137639       -0.027215139116498       -0.015712532656471       -0.024477941468560
Mo         34.829184955637373        0.943876781586372        9.907142463420746       -0.000101558620227       -0.000058621178258        0.036099847168550
Se         34.832844298543058        2.862466549273519        8.239517761513660       -0.007441804313537       -0.004296572411675       -0.027787466935802
Se         34.825743367534493        2.858361074576717       11.578500863532039        0.007181865667843        0.004146419919998       -0.027882083574393
Mo         38.148612614145236        0.943876781586372        9.914939147579744        0.003404913437126        0.001965866355076        0.031842098431949
Se         38.174254569948808        2.875154749856520        8.260400978212012       -0.035179391825734       -0.020310952714086       -0.016655099496349
Se         38.123204346422725        2.845678185086467       11.599378769137639        0.038466805795914        0.022208941915390       -0.024488740106660
Mo         41.468056205931362        0.943876781586372        9.961777674553996        0.001116630601634        0.000644832960833        0.017904656190786
Se         41.503943259652310        2.881076618274288        8.313458794798109       -0.048239830386913       -0.027851230322679        0.004129707741986
Se         41.432386907013218        2.839756316668699       11.652436585723736        0.049847284801238        0.028779398978423       -0.012107587304062
Mo         44.787483864439231        0.943876781586372       10.026158740885995       -0.001506667125391       -0.000869804587918       -0.011442442619184
Se         44.817215361661347        2.877512875038124        8.374339851006958       -0.039556439802298       -0.022837834029503        0.019655321115153
Se         44.757986055298169        2.843314748812111       11.713328264118090        0.037601886306184        0.021709633458477        0.009142332703868
Mo         48.106922145132593        0.943876781586372       10.078526115414414       -0.003575120542418       -0.002064082539700       -0.041681457514134
Se         48.116896377319655        2.866104647808201        8.415107798966407       -0.020417396432501       -0.011787999038386        0.020016561270643
Se         48.097176289933849        2.854722976042035       11.754090900984785        0.019407723770144        0.011205129691413        0.018287750732908
Mo         51.426355114733212        0.943876781586372       10.094857725624848       -0.000550730543104       -0.000318045603090       -0.004566538364177
Se         51.412031097582798        2.852083362944608        8.417041036727902       -0.475125935329588       -0.274313946999735       -0.537679617628581
Se         51.440891575593689        2.868744260905627       11.756029449839032        0.320426702791364        0.184998411274017       -0.430652515645723
