# total energy = -9459.052398175505 eV 

 CRYSTAL
 PRIMVEC
        6.107710890233100        0.000000000000000        0.000000000000000
       -3.053855445116550        5.289430323714121        0.000000000000000
        0.000000000000000        0.000000000000000       20.000047449589029
 PRIMCOORD
12 1
Se          3.044196100343646        5.274330840851286        8.985637387783019       -1.013368881912390        0.926656332189651      -29.892615667754836
Se         -0.030531225198097        5.269782428551329        9.003125596375023        0.651331941196266        1.169372692777275      -29.778005350721418
Se          4.542905587817955        2.641151312552609        8.951906943620617        0.138303043245846       -1.407591163485787      -27.974872414930577
Se          1.502333192345484        2.638746096004035        8.946659809194818       -0.061455820758818       -0.677238131108776      -28.720258179984615
Se          3.027021217320311        5.281729721823714       11.026843528865257        0.855124096531308       -0.524327615838700       29.443662545854661
Se         -0.013662338490362        5.275546886089531       11.059781192154105       -1.215349951371791       -0.634454184066711       28.691463611490764
Se          4.554617734221067        2.631171923729057       11.041942400957002       -0.078184968059282        0.924736745712147       27.673298334488926
Se          1.501835413907930        2.623550722080224       11.025607938952163       -0.275247772084961        0.585910706260841       28.919385066549996
Mo          1.503292102955251        0.873705599763489        9.979625191963313        0.793930785522494        0.574546682323098        0.235693646276542
Mo          4.554248828483296        0.862006890324336       10.019130476772430        0.180403076541573        1.436060487284479        0.234141984825733
Mo         -0.022890478874416        3.514542975976340        9.960749922228137       -0.230982354739738       -1.316615208596966        0.439057969854476
Mo          3.017631222597666        3.517875343038051        9.970193054035526        0.255496805889493       -1.057057086340121        0.729048196939918
