# total energy = -38122.86770293311 eV 

 CRYSTAL
 PRIMVEC
       26.555490215667398        0.000000000000000        0.000000000000000
       -3.319436276958425        5.749422964633285        0.000000000000000
        0.000000000000000        0.000000000000000       20.000028456517960
 PRIMCOORD
48 1
Mo          1.634851577441262        0.943875066480574       10.035707462657857       -0.007158982839488        0.014064711904486        0.217623153857790
Se          1.646905114450153        2.883615538185956        8.386146799186138       -0.075819294984073       -0.117548317927933       -0.035200474881072
Se          1.623021106550182        2.837220441230163       11.725130572492317        0.076587540951764        0.118691688014386       -0.034121896623220
Mo         -0.024866561037951        3.818589204346238       10.057018243555930        0.005501134780695        0.003400799670231       -0.062476292059276
Se         -0.015914705286249        5.753738231793332        8.403442389963603       -0.026511684977407       -0.200507312469172       -0.300334551054020
Se         -0.033592695122819        5.716526023354117       11.742431474367823        0.029912998868500        0.187095146838448       -0.273235111631452
Mo          4.954290509948708        0.943875066480574       10.057018243555930        0.004926235857082        0.013901703891261        0.484531034893891
Se          4.963239710151387        2.879021438378646        8.403442389963603       -0.019733739796594       -0.075378864815848       -0.011651987620412
Se          4.945561720314818        2.841811885488453       11.742431474367823        0.016762314546057        0.073434081516111       -0.009267545483743
Mo          3.294569715920474        3.818589204346238       10.074738722176846        0.001787688826424       -0.000547388107501        0.031356673938308
Se          3.299864880669478        5.747978345965553        8.416154503129844        0.025974067066282       -0.106633465913067       -0.202838275636202
Se          3.289500272838303        5.722285909181895       11.755140931985041       -0.025080351208286        0.097860600898480       -0.185653528652088
Mo          8.273726786907133        0.943875066480574       10.074738722176846        0.003875682636203        0.007155126183023        0.321088762151071
Se          8.279019296107116        2.873261552550868        8.416154503129844       -0.013106461328319       -0.057764229191179       -0.000757447329591
Se          8.268657343824962        2.847571771316231       11.755140931985041        0.009940917702412        0.055663636970283        0.002254858479468
Mo          6.614008648427920        3.818589204346238       10.087769501225674        0.002548992812480        0.000646889844281        0.017330271488034
Se          6.615317834095553        5.741411173235218        8.423486473978389        0.036857037387710       -0.049577575959167       -0.110810481974348
Se          6.612919873329078        5.728855737461251       11.762470247284565       -0.036667032779235        0.045584136745587       -0.102416597734988
Mo         11.593160408316535        0.943875066480574       10.087769501225674        0.003146260343586        0.002878351274532        0.137993739397408
Se         11.594469593984169        2.866694379820533        8.423486473978389       -0.004765541837735       -0.036083906321831        0.008518582798373
Se         11.592079599864757        2.854138944046565       11.762470247284565        0.001588428242435        0.034163805623465        0.012034310831240
Mo          9.933444925386345        3.818589204346238       10.095279393858664        0.002968597035797        0.001418221137143        0.001076521374405
Se          9.930696432149023        5.734448323700670        8.424973581430466        0.045931492937806        0.009130505624044       -0.015601975171160
Se          9.936416484741478        5.735815931446778       11.763960010285665       -0.047843108991950       -0.010859059051349       -0.011025923721038
Mo         14.912601996373002        0.943875066480574       10.095279393858664        0.003203853080120        0.001895675207425       -0.053920171137983
Se         14.909853503135682        2.859731530285985        8.424973581430466        0.003668451628854       -0.012266481550392        0.017220485334017
Se         14.915573555728136        2.861101793581113       11.763960010285665       -0.006814197751578        0.010528672147573        0.020880709429080
Mo         13.252881202344769        3.818589204346238       10.096808990095086        0.003220308147701        0.001943497747583       -0.015546182207643
Se         13.246250296437916        5.727527962950468        8.420528192368362        0.051668655094117        0.065387553468970        0.077243172550697
Se         13.259732518820410        5.742736292196981       11.759519932321606       -0.056708533761681       -0.068194170933265        0.084189010842924
Mo         18.232035617782408        0.943875066480574       10.096808990095086        0.004110938680526        0.004338995632782       -0.241979482092509
Se         18.225404711875555        2.852813825084803        8.420528192368362        0.012348242667436        0.012507651134627        0.024764105378212
Se         18.238886934258048        2.868019498782294       11.759519932321606       -0.015158973898626       -0.013995806308990        0.027975671771260
Mo         16.572314823754173        3.818589204346238       10.092249412425057        0.003166829178062        0.002085679815900       -0.030037440317082
Se         16.562234359668306        5.721088256573168        8.410426483890323        0.054025329304243        0.116297732791772        0.162274734275857
Se         16.582623665055895        5.749175998574279       11.749410257196502       -0.062646756274998       -0.123247170630032        0.177165799105429
Mo         21.551469239191810        0.943875066480574       10.092249412425057        0.005309844620065        0.009463977852992       -0.420484826543210
Se         21.541388775105943        2.846371463158483        8.410426483890323        0.017464997353854        0.034324242532381        0.028879157825633
Se         21.561778080493532        2.874461860708615       11.749410257196502       -0.020302725180295       -0.036036598002535        0.031413495343549
Mo         19.891756411810640        3.818589204346238       10.081898082338990        0.002683975788730        0.001869964164330       -0.046575554567346
Se         19.878858410212892        5.715530192471030        8.395305787761522        0.049764495242471        0.158491868505229        0.232564869442261
Se         19.904877479526203        5.754736718225441       11.734289561067699       -0.062119679891542       -0.171378243304651        0.258116246960054
Mo         24.870910827248277        0.943875066480574       10.081898082338990        0.006307433092167        0.013298522820242       -0.560430034111560
Se         24.858012825650530        2.840813399056343        8.395305787761522        0.091333595498278        0.105316032064858        0.033667839602155
Se         24.884031894963840        2.880019924810755       11.734289561067699       -0.100114430936224       -0.111493367278963        0.038126648695762
Mo         23.211190033220042        3.818589204346238       10.066397642700105        0.002610956426340        0.000751790900110       -0.044815376557034
Se         23.196300369856118        5.711201647565876        8.376111479433638        0.019727569146251        0.184803007346492        0.153182280995594
Se         23.226310729348846        5.759062607581573       11.715100563837858       -0.018373882727277       -0.196882312503149        0.167709277454935
