# total energy = -38122.29141644834 eV 

 CRYSTAL
 PRIMVEC
       13.277745107833699        0.000000000000000        0.000000000000000
       -6.638872553916849       11.498859207011680        0.000000000000000
        0.000000000000000        0.000000000000000       20.000015178772852
 PRIMCOORD
48 1
Mo          1.634851577441262        0.943875066480574        9.917284581815601        0.121702708271290        0.063546899893769        1.453628071700284
Se          1.660318292558086        2.904331476103198        8.330514374958828       -0.028062317986492       -0.035096859377398       -0.007030427624011
Se          1.609610583991270        2.816503175538411       11.669498148265003        0.013046297487476        0.011915011591278       -0.027648113082225
Mo         -0.024865233263440        3.818589204346238       10.000007589386426        0.041655232250177        0.024679258935997       -0.191732390571137
Se         -0.066525486313779        5.777342079271528        8.389151552904041        0.315780203083161       -0.215711280693215       -0.078026845144245
Se          0.017016758130200        5.692922175875920       11.728137981759241       -0.289509173469126        0.204484039504740       -0.083678132416618
Mo         -1.684584699517163        6.693304669986414       10.082726613633719        0.048817814635698        0.044103180663291       -0.887852197508325
Se         -1.735641612780316        8.592019564857612        8.366754652456148        0.249844233064966       -0.090286898933863        0.003754069402362
Se         -1.633302064587177        8.627672966021166       11.705738425762325       -0.227166578833947        0.085005850682065       -0.016755372564421
Mo         -3.344301510221865        9.568020135626588       10.051137530247672       -0.000590839770333        0.008167884170552       -0.354057518491462
Se         -3.334044452126063       11.431337889814811        8.294274097461505        0.105710182355511        0.270471688719557        0.246307936197623
Se         -3.354336829974365       11.537788227893337       11.633257870767682       -0.142902234634754       -0.276789406228962        0.251092761317679
Mo          4.954287854399686        0.943875066480574       10.000007589386426       -0.092667484414068        0.112854767010865       -1.062901720656571
Se          4.912628929123858        2.902626613631353        8.389151552904041        0.296262950269430       -0.219178157744201       -0.091600219015177
Se          4.996171173567837        2.818206710235746       11.728137981759241       -0.284385219690641        0.221176162903146       -0.093307689387144
Mo          3.294569715920474        3.818589204346238       10.082726613633719       -0.006557601541486        0.017829579944947       -0.447324327320084
Se          3.243512802657321        5.717305426991946        8.366754652456148        0.184494217718916       -0.096272686876907       -0.039765470582663
Se          3.345851023075949        5.752957500380991       11.705738425762325       -0.177906277146577        0.104286304788887       -0.056380203741352
Mo          1.634851577441262        6.693304669986414       10.051137530247672        0.004869414451841        0.003429081817636       -0.281919787768221
Se          1.645109963311574        8.556618440851105        8.294274097461505       -0.185027721863146        0.113394184695007        0.077024114463524
Se          1.624817585463271        8.663074090027672       11.633257870767682        0.176905089128442       -0.129331946088993        0.059284008948549
Mo         -0.024865233263440        9.568020135626588        9.948881631848712       -0.003556865701820        0.000711681672881        0.182553291075643
Se          0.032685825131954       11.469487507058640        8.271877197013612       -0.300158430408817        0.343566127356377        0.654382042238675
Se         -0.082194553315534       11.499627988453422       11.610858314770766        0.379825640102550       -0.492904093188345        0.834691787693812
Mo          8.273725459132622        0.943875066480574       10.082726613633719        0.011036208138276        0.084296225892631       -1.721217552488844
Se          8.222667218094958        2.842589961351771        8.366754652456148        0.184198540723319       -0.102418140397574       -0.022874600821130
Se          8.325005438513587        2.878244690289837       11.705738425762325       -0.180042864827806        0.088657590132907       -0.036079535444505
Mo          6.614007320653410        3.818589204346238       10.051137530247672       -0.000930739760054        0.003531668879586       -0.327931756270916
Se          6.624264378749211        5.681904302985441        8.294274097461505       -0.175216387817935        0.098925038082630        0.063144779179756
Se          6.603972000900908        5.788358624387497       11.633257870767682        0.170421535391071       -0.112394282229026        0.042880106343242
Mo          4.954287854399686        6.693304669986414        9.948881631848712       -0.002622783506163        0.007118873612259        0.285059363240603
Se          5.011840240569591        8.594777352516507        8.271877197013612       -0.287149156823398        0.159988251213382        0.074221096545262
Se          4.896959862122103        8.624916506136779       11.610858314770766        0.305086466038915       -0.163493951939442        0.065467514812996
Mo          3.294569715920474        9.568020135626588        9.917284581815601       -0.002393955222614        0.006111772054211        0.413966562897660
Se          3.320036431037299       11.528477873023723        8.330514374958828       -0.291593053512010        0.005624290677122        0.217358073003477
Se          3.269328722470482       11.440648244684425       11.669498148265003        0.334005733091778       -0.047515293192484        0.245157367019103
Mo         11.593157752767514        0.943875066480574       10.051137530247672       -0.040584881526114        0.052570341375474       -0.025926501636556
Se         11.603418794186847        2.807188837345265        8.294274097461505        0.020955528564488        0.305163856278632        0.398774935974302
Se         11.583127744113057        2.913644486521833       11.633257870767682       -0.057474722845924       -0.293800860782613        0.404085809036091
Mo          9.933443597611834        3.818589204346238        9.948881631848712       -0.010288273894631       -0.001114830828617        0.218785035895272
Se          9.990994656007228        5.720061886876333        8.271877197013612       -0.136269556847429        0.227825038647621        0.413148951727226
Se          9.876114277559740        5.750201040496605       11.610858314770766        0.066419080517958       -0.285618578427928        0.450150742287563
Mo          8.273725459132622        6.693304669986414        9.917284581815601       -0.013702957528133        0.013416793618481        0.432713769970682
Se          8.299189518700425        8.653759751834528        8.330514374958828       -0.110076174583543       -0.086300401701919       -0.098689010707014
Se          8.248483137908119        8.565931451269741       11.669498148265003        0.098195101569151        0.097283902201850       -0.128321244984913
Mo          6.614007320653410        9.568020135626588       10.000007589386426        0.003630399285073       -0.009108137016551        0.060293938721337
Se          6.572347067603070       11.526767699453835        8.389151552904041        0.041048965853987       -0.484847537834396       -0.800761438341653
Se          6.655889312047049       11.442347796058227       11.728137981759241       -0.127075030726078        0.362047739354224       -0.666144330233966
