# total energy = -38122.72807472882 eV 

 CRYSTAL
 PRIMVEC
       13.277745107833699        0.000000000000000        0.000000000000000
       -6.638872553916849       11.498859207011680        0.000000000000000
        0.000000000000000        0.000000000000000       20.000015178772852
 PRIMCOORD
48 1
Mo          1.682858592653145        0.860727171066298       10.000007589386426       -0.208055303390693        0.366353824851844        0.000000000000000
Se          1.684936559762521        2.773863024899113        8.330514374958828       -0.009577620663473        0.031807902744632        0.003520098910193
Se          1.684936559762521        2.773863024899113       11.669498148265003       -0.009577620663473        0.031807902744632       -0.003520098910193
Mo          0.023140454173933        3.735441308931962       10.000007589386426       -0.208092584403182        0.366377221901061        0.000000000000000
Se          0.025218421283309        5.648577162764778        8.330514374958828       -0.009573249786147        0.031817930051439        0.003519584689332
Se          0.025218421283309        5.648577162764778       11.669498148265003       -0.009573249786147        0.031817930051439       -0.003519584689332
Mo         -1.636577684305280        6.610155446797626       10.000007589386426       -0.208045276083886        0.366400618950278        0.000000000000000
Se         -1.634499717195904        8.523292628404953        8.330514374958828       -0.009572478454854        0.031818701382732        0.003523184235365
Se         -1.634499717195904        8.523292628404953       11.669498148265003       -0.009572478454854        0.031818701382732       -0.003523184235365
Mo         -3.296295822784492        9.484870912437803       10.000007589386426       -0.208049389850781        0.366415531355273        0.000000000000000
Se         -3.294217855675116       11.398008094045128        8.330514374958828       -0.009573506896578        0.031834385119020        0.003539639302946
Se         -3.294217855675116       11.398008094045128       11.669498148265003       -0.009573506896578        0.031834385119020       -0.003539639302946
Mo          4.987883205071527        0.885686676320004       10.000007589386426        0.110966548005938       -0.185788768738770        0.000000000000000
Se          4.993847568173966        2.792093368932169        8.330514374958828       -0.096989767868838        0.163405763061625       -0.001468614781610
Se          4.993847568173966        2.792093368932169       11.669498148265003       -0.096989767868838        0.163405763061625        0.001468614781610
Mo          3.328165066592314        3.760402141960179       10.000007589386426        0.110969119110247       -0.185753030388867        0.000000000000000
Se          3.334129429694753        5.666807506797833        8.330514374958828       -0.096990539200131        0.163416047478863       -0.001468871892041
Se          3.334129429694753        5.666807506797833       11.669498148265003       -0.096990539200131        0.163416047478863        0.001468871892041
Mo          1.668446928113102        6.635116279825843       10.000007589386426        0.110968090668523       -0.185755601493177        0.000000000000000
Se          1.674411291215541        8.541521644663499        8.330514374958828       -0.096988225206253        0.163419132804034       -0.001470414554627
Se          1.674411291215541        8.541521644663499       11.669498148265003       -0.096988225206253        0.163419132804034        0.001470414554627
Mo          0.008728789633890        9.509831745466018       10.000007589386426        0.110958320472147       -0.185744545744646        0.000000000000000
Se          0.014693152736329       11.416238438078183        8.330514374958828       -0.096987710985391        0.163432502546444       -0.001453445266184
Se          0.014693152736329       11.416238438078183       11.669498148265003       -0.096987710985391        0.163432502546444        0.001453445266184
Mo          8.280077532392209        0.932873126884223       10.000007589386426        0.236896408872545       -0.400672153844313        0.000000000000000
Se          8.287690991437040        2.836419793200161        8.330514374958828       -0.107657793869988        0.189301411446466       -0.002413238504936
Se          8.287690991437040        2.836419793200161       11.669498148265003       -0.107657793869988        0.189301411446466        0.002413238504936
Mo          6.620358066138486        3.807588592524398       10.000007589386426        0.236907207510645       -0.400651327899406        0.000000000000000
Se          6.627972852957829        5.711135258840336        8.330514374958828       -0.107652137440507        0.189305010992499       -0.002415809609245
Se          6.627972852957829        5.711135258840336       11.669498148265003       -0.107652137440507        0.189305010992499        0.002415809609245
Mo          4.960639927659273        6.682302730390062       10.000007589386426        0.236906436179353       -0.400634358610963        0.000000000000000
Se          4.968254714478616        8.585850724480512        8.330514374958828       -0.107655222765679        0.189303982550775       -0.002412724284074
Se          4.968254714478616        8.585850724480512       11.669498148265003       -0.107655222765679        0.189303982550775        0.002412724284074
Mo          3.300921789180062        9.557018196030238       10.000007589386426        0.236903350854181       -0.400606076463558        0.000000000000000
Se          3.308536575999404       11.460567517895198        8.330514374958828       -0.107636710814650        0.189301411446466       -0.002384956357531
Se          3.308536575999404       11.460567517895198       11.669498148265003       -0.107636710814650        0.189301411446466        0.002384956357531
Mo         11.569848671230712        0.984261983775072       10.000007589386426        0.217173724824483       -0.418956047920756        0.000000000000000
Se         11.576237922176603        2.889914500465113        8.330514374958828        0.035736035908750       -0.065083134718720        0.007845467690135
Se         11.576237922176603        2.889914500465113       11.669498148265003        0.035736035908750       -0.065083134718720       -0.007845467690135
Mo          9.910126549427968        3.858976121640736       10.000007589386426        0.217216919376883       -0.418913881810080        0.000000000000000
Se          9.916525094795432        5.764628638330777        8.330514374958828        0.035677414730492       -0.065071821859758        0.007842382364964
Se          9.916525094795432        5.764628638330777       11.669498148265003        0.035677414730492       -0.065071821859758       -0.007842382364964
Mo          8.250408410948754        6.733691587280910       10.000007589386426        0.217256000162388       -0.418928794215075        0.000000000000000
Se          8.256806956316220        8.639342776196441        8.330514374958828        0.035678700282647       -0.065072336080620        0.007843153696257
Se          8.256806956316220        8.639342776196441       11.669498148265003        0.035678700282647       -0.065072336080620       -0.007843153696257
Mo          6.590690272469542        9.608407052921086       10.000007589386426        0.217256771493681       -0.418916195803958        0.000000000000000
Se          6.597088817837007       11.514058241836617        8.330514374958828        0.035694641129366       -0.065049967473127        0.007848038794445
Se          6.597088817837007       11.514058241836617       11.669498148265003        0.035694641129366       -0.065049967473127       -0.007848038794445
