# total energy = -9521.292728623837 eV 

 CRYSTAL
 PRIMVEC
        7.833781241021299        0.000000000000000        0.000000000000000
       -3.916890620510650        6.784250399255471        0.000000000000000
        0.000000000000000        0.000000000000000       19.999996028483224
 PRIMCOORD
12 1
Se          3.872515383292760        6.768151978805172        8.297984482508003        0.009561679816754       -0.024532448879922        2.093902464592504
Se         -0.022654511970909        6.774017914198448        8.280526901012385       -0.020319694468738       -0.046723650175576        2.069245574264000
Se          5.849041060652362        3.382033722633051        8.231248500115742        0.000927397324452       -0.026722515530790        2.324854994522251
Se          1.933329424218486        3.374205425038899        8.301654609019421       -0.029506250166731       -0.003804463046829        1.982609129228823
Se          3.873993617812941        6.775396659696868       11.769800388566274        0.007324561957022       -0.052765231082137       -2.323525219373356
Se         -0.051726457534464        6.779508611470280       11.729989112299403        0.040636817833167       -0.055830244529541       -2.218400477469128
Se          5.834721691921899        3.372305733087951       11.730242143433488        0.008941272346862        0.003589004505689       -2.260819841920100
Se          1.927632698500016        3.377830115619119       11.700940668079573       -0.008944357672033       -0.004759371187392       -2.000175942313335
Mo          1.921559167903852        1.100977633309988       10.004167152618084        0.013412936962017        0.088287608222764        0.122557600454213
Mo          5.840890011271079        1.101135092312932        9.982999492326719       -0.015818719264455        0.090622942267120        0.153626053599421
Mo         -0.027205155493819        4.505838994479376        9.977683488376561       -0.037722471098302        0.016081743235321        0.084806590098075
Mo          3.876107955369893        4.504471216274693       10.023173472665048        0.031506826429985        0.016556626201293       -0.028680925683368
