# total energy = -38122.133427354514 eV 

 CRYSTAL
 PRIMVEC
       13.277745107833699        0.000000000000000        0.000000000000000
       -6.638872553916849       11.498859207011680        0.000000000000000
        0.000000000000000        0.000000000000000       20.000015178772852
 PRIMCOORD
48 1
Mo          1.618935544380501        0.992159586565211       10.000007589386426        0.627387246761505       -0.642116332019576        0.000000000000000
Se          1.633604797175636        2.890615565406806        8.285387302660833        0.115153077153164       -0.178605617518773        0.402923155667317
Se          1.633604797175636        2.890615565406806       11.714627876112020        0.115153077153164       -0.178605617518773       -0.402923155667317
Mo         -0.011525082753600        3.821989634868354       10.000007589386426        0.256184833402727       -0.158500610259881        0.000000000000000
Se          0.004081578846148        5.712042128831201        8.286955404358066       -0.144374706072828        0.097324525649941        0.374206748744477
Se          0.004081578846148        5.712042128831201       11.713058446640273       -0.144374706072828        0.097324525649941       -0.374206748744477
Mo         -1.648641843510258        6.650124115121228       10.000007589386426        0.216971636025753        0.043324136057500        0.000000000000000
Se         -1.639829404082188        8.544988463911153        8.310257847022315       -0.245553317082772        0.225201998031026        0.149577078532755
Se         -1.639829404082188        8.544988463911153       11.689758659525047       -0.245553317082772        0.225201998031026       -0.149577078532755
Mo         -3.303691526809556        9.499803064586072       10.000007589386426       -0.102014219910545        0.070845750807695        0.000000000000000
Se         -3.306013804428916       11.410297974916940        8.343665981488137       -0.505897940147906        0.326551073256693        0.024902430790065
Se         -3.306013804428916       11.410297974916940       11.656347869510205       -0.505897940147906        0.326551073256693       -0.024902430790065
Mo          4.982704884479471        0.881143031944103       10.000007589386426       -1.057935118461829        0.969898450019677        0.000000000000000
Se          4.971641867255625        2.807693391659363        8.367544678290065       -0.177003305313066        0.318051259519779       -0.348404174335641
Se          4.971641867255625        2.807693391659363       11.632467844933766       -0.177003305313066        0.318051259519779        0.348404174335641
Mo          3.295961223607775        3.790948922355261       10.000007589386426       -0.271729215837353       -0.041967621423786        0.000000000000000
Se          3.280010668409734        5.731308136982668        8.377911941670261        0.112135629135486        0.050964172513303       -0.413550043999514
Se          3.280010668409734        5.731308136982668       11.622108548200634        0.112135629135486        0.050964172513303        0.413550043999514
Mo          1.608524464441449        6.714545078835416       10.000007589386426       -0.147533050606669       -0.259369660310956        0.000000000000000
Se          1.595700818216303        8.656829566503458        8.364630213238893        0.214291002672625       -0.135723454292083       -0.286360599131662
Se          1.595700818216303        8.656829566503458       11.635387621082979        0.214291002672625       -0.135723454292083        0.286360599131662
Mo         -0.065776621489697        9.627544266945007       10.000007589386426        0.314312616743274       -0.284667269833398        0.000000000000000
Se         -0.069019046845030       11.558907809261857        8.334326415579286        0.769885560909230       -0.547724665055529       -0.538572819265716
Se         -0.069019046845030       11.558907809261857       11.665688763193566        0.769885560909230       -0.547724665055529        0.538572819265716
Mo          8.236481384105147        1.012955190953100       10.000007589386426        0.779273434074659       -0.795471905445633        0.000000000000000
Se          8.242938351551087        2.928855471317367        8.306360828833165        0.210415062925991       -0.336370891946125        0.252560347657566
Se          8.242938351551087        2.928855471317367       11.693658333263217        0.210415062925991       -0.336370891946125       -0.252560347657566
Mo          6.598066059876945        3.866904263244624       10.000007589386426        0.308363081370995       -0.099421004103941        0.000000000000000
Se          6.612731329348547        5.765373519831327        8.285396597082407       -0.032260417103112       -0.143165258605620        0.370903908148440
Se          6.612731329348547        5.765373519831327       11.714618581690443       -0.032260417103112       -0.143165258605620       -0.370903908148440
Mo          4.967604104968332        6.696747589292875       10.000007589386426        0.243320570100366        0.159374528614694        0.000000000000000
Se          4.983213422117102        8.586802738804744        8.286943454387469       -0.176462859187201        0.053890346327992        0.346119233935752
Se          4.983213422117102        8.586802738804744       11.713067741061851       -0.176462859187201        0.053890346327992       -0.346119233935752
Mo          3.330499294182272        9.524872775124173       10.000007589386426       -0.205180037441333        0.165825686437765        0.000000000000000
Se          3.339321028031916       11.419727829492523        8.310231291532100       -0.572530422323556        0.439872752810170        0.468467803609599
Se          3.339321028031916       11.419727829492523       11.689787870564285       -0.572530422323556        0.439872752810170       -0.468467803609599
Mo         11.634427640111683        0.877365513460924       10.000007589386426       -1.505179998658748        1.034629086337558        0.000000000000000
Se         11.633838108228895        2.785097325034851        8.338672221553081       -0.185291517165305        0.295579550743954       -0.059756320810211
Se         11.633838108228895        2.785097325034851       11.661337646121730       -0.185291517165305        0.295579550743954        0.059756320810211
Mo          9.961877888760259        3.755839908741127       10.000007589386426       -0.320878960039413        0.174129839136723        0.000000000000000
Se          9.950821510408968        5.682375662936769        8.367526089446912        0.053466628337780        0.103643785821932       -0.326773988000330
Se          9.950821510408968        5.682375662936769       11.632487761551427        0.053466628337780        0.103643785821932        0.326773988000330
Mo          8.275142194535627        6.665623226985603       10.000007589386426       -0.288640654433363       -0.029468454933380        0.000000000000000
Se          8.259192967112098        8.605975802740454        8.377913269444770        0.151158050572692       -0.050935119034605       -0.469020333925720
Se          8.259192967112098        8.605975802740454       11.622097926004550        0.151158050572692       -0.050935119034605        0.469020333925720
Mo          6.587698796496747        9.589219383465757       10.000007589386426        0.134298034062873       -0.162143865066502        0.000000000000000
Se          6.574869839173559       11.531507854457331        8.364651457631068        0.922359245557114       -0.591004578118905       -0.888355105511271
Se          6.574869839173559       11.531507854457331       11.635367704465317        0.922359245557114       -0.591004578118905        0.888355105511271
