# total energy = -9525.837138310464 eV 

 CRYSTAL
 PRIMVEC
        7.568240097473099        0.000000000000000        0.000000000000000
       -3.784120048736550        6.554285130414141        0.000000000000000
        0.000000000000000        0.000000000000000       20.000020487584848
 PRIMCOORD
12 1
Se          3.753378614284624        6.527427716780238        8.436554122568316        0.065761134925146        0.062878155662857        0.285531417991835
Se         -0.026795354065104        6.530664653069927        8.416477852061748       -0.014782564227710        0.070903600654660        0.522239622028922
Se          5.655953194620317        3.268675218186017        8.442380153795348       -0.054523609319432       -0.067074969227322        0.145417545980779
Se          1.855965573695406        3.273199512116287        8.411973992379743        0.035684099601697       -0.108617072887878        0.535156335859197
Se          3.753480785525940        6.541689308419916       11.534730514190437        0.034345068477288       -0.028584766382191       -0.026825359703171
Se         -0.024489311307403        6.532924529563033       11.586515440233388        0.009728030265582       -0.009277572790550       -0.518738035069757
Se          5.632564305423087        3.261984137115841       11.557904465368901        0.082176864610276       -0.002373900609000       -0.249083186189342
Se          1.876371819470223        3.259016630173622       11.579584445952122       -0.073104465943628        0.011286119477164       -0.493418056939822
Mo          1.874979263292288        1.074624250152332       10.021805261625127       -0.017367552500523        0.040992915780039       -0.260608675477724
Mo          5.654196606093694        1.081772452924396       10.000606621112105       -0.144134564930317       -0.079833045921698       -0.081970147823789
Mo         -0.040117727108685        4.351493601891884        9.978950858897194        0.174395434211898        0.055952629094676        0.193905745043993
Mo          3.759540675371986        4.344199332085939        9.994070688963927       -0.098178132280709        0.053748164259675       -0.051607462811550
