# total energy = -38121.54441450796 eV 

 CRYSTAL
 PRIMVEC
       13.277745107833699        0.000000000000000        0.000000000000000
       -6.638872553916849       11.498859207011680        0.000000000000000
        0.000000000000000        0.000000000000000       20.000015178772852
 PRIMCOORD
48 1
Mo          1.565727636409879        0.929100919499088       10.000007589386426        1.128236823597626        0.391740137472965        0.000000000000000
Se          1.634989665990383        2.860501639502239        8.319642557264533       -0.012373696600100       -0.029794213849399        0.265083939638912
Se          1.634989665990383        2.860501639502239       11.680368638184788       -0.012373696600100       -0.029794213849399       -0.265083939638912
Mo         -0.002861354070738        3.886009610680286       10.000007589386426       -0.214079400787949       -1.768981728578491        0.000000000000000
Se         -0.024685983704484        5.735060427750142        8.380279363622988        0.018473898684918       -0.000316760050936       -1.552390358880120
Se         -0.024685983704484        5.735060427750142       11.619738470698886        0.018473898684918       -0.000316760050936        1.552390358880120
Mo         -1.637383643433325        6.640904048918348       10.000007589386426       -1.057935632682691        1.463845383115971        0.000000000000000
Se         -1.684566110674012        8.609831659919770        8.291801781322427       -0.023402705646310        0.061894708264457        0.863194792958959
Se         -1.684566110674012        8.609831659919770       11.708208086352382       -0.023402705646310        0.061894708264457       -0.863194792958959
Mo         -3.413333834812003        9.552810478605567       10.000007589386426        1.251580153528834        0.136912847145677        0.000000000000000
Se         -3.344166077221765       11.484648036422763        8.319322563607434       -0.184736415744875        0.081686555018447        0.468940886802555
Se         -3.344166077221765       11.484648036422763       11.680697926263461       -0.184736415744875        0.081686555018447       -0.468940886802555
Mo          4.976293061366899        1.011294145040111       10.000007589386426       -0.584675033529675       -1.576803765630511        0.000000000000000
Se          4.954469759507663        2.860346289884478        8.380279363622988       -0.001217932111430        0.022999042269712       -1.549926983841148
Se          4.954469759507663        2.860346289884478       11.619738470698886       -0.001217932111430        0.022999042269712        1.549926983841148
Mo          3.341770772004312        3.766188583278173       10.000007589386426       -1.283823087122641        1.156422040370114        0.000000000000000
Se          3.294588304763625        5.735117522054106        8.291801781322427       -0.000350698627821        0.001806457887884        0.838629948164737
Se          3.294588304763625        5.735117522054106       11.708208086352382       -0.000350698627821        0.001806457887884       -0.838629948164737
Mo          1.565820580625634        6.678096340739900       10.000007589386426        1.640477935187602        0.532180796841764        0.000000000000000
Se          1.634988338215872        8.609931243008079        8.319322563607434       -0.028873501396152       -0.016972630878577        0.257255441237220
Se          1.634988338215872        8.609931243008079       11.680697926263461       -0.028873501396152       -0.016972630878577       -0.257255441237220
Mo         -0.003283586365167        9.635574647186226       10.000007589386426       -0.549926558786221       -1.767245718948689        0.000000000000000
Se         -0.024684655929974       11.484488703481469        8.380378946711296        0.139861903788721        0.425367353627029       -0.890501206278446
Se         -0.024684655929974       11.484488703481469       11.619638887610579        0.139861903788721        0.425367353627029        0.890501206278446
Mo          8.320926515216460        0.891474445412509       10.000007589386426       -0.470426213762177        1.083043751817520        0.000000000000000
Se          8.273742720201263        2.860403384188441        8.291801781322427        0.023247153835582        0.001290951473821        0.853088553249444
Se          8.273742720201263        2.860403384188441       11.708208086352382        0.023247153835582        0.001290951473821       -0.853088553249444
Mo          6.544973668288760        3.803380875099725       10.000007589386426        1.658147592444495        0.496934813414413        0.000000000000000
Se          6.614142753653510        5.735215777367904        8.319322563607434        0.003997552980475       -0.026360504044006        0.260239722009305
Se          6.614142753653510        5.735215777367904       11.680697926263461        0.003997552980475       -0.026360504044006       -0.260239722009305
Mo          4.975870829072470        6.760859181546050       10.000007589386426       -0.362999305059185       -1.703227278524551        0.000000000000000
Se          4.954469759507663        8.609775893390317        8.380378946711296        0.013697043988221       -0.022541385702613       -1.515645935861168
Se          4.954469759507663        8.609775893390317       11.619638887610579        0.013697043988221       -0.022541385702613        1.515645935861168
Mo          3.342100060082986        9.515918263823449       10.000007589386426       -1.275689912860268        1.340714426400730        0.000000000000000
Se          3.294588304763625       11.484548453334456        8.292023519665728        0.019400010457215       -0.439036372578276        0.204190419392590
Se          3.294588304763625       11.484548453334456       11.707987675783592        0.019400010457215       -0.439036372578276       -0.204190419392590
Mo         11.524128083726398        0.928666737234062       10.000007589386426        1.181811438316406        0.191271905789298        0.000000000000000
Se         11.593298496865657        2.860501639502239        8.319322563607434        0.020989467141374        0.203940765164134        0.366771115081283
Se         11.593298496865657        2.860501639502239       11.680697926263461        0.020989467141374        0.203940765164134       -0.366771115081283
Mo          9.955025244510107        3.886145043680386       10.000007589386426       -0.532656708249460       -1.789137900813143        0.000000000000000
Se          9.933624174945301        5.735060427750142        8.380378946711296        0.421781948667374        0.093625220769372       -1.223393136983330
Se          9.933624174945301        5.735060427750142       11.619638887610579        0.421781948667374        0.093625220769372        1.223393136983330
Mo          8.321254475520622        6.641204125957786       10.000007589386426       -1.244764670225102        1.348103265965491        0.000000000000000
Se          8.273742720201263        8.609831659919770        8.292023519665728       -0.345027028825059       -0.256511106539607        0.538809617972624
Se          8.273742720201263        8.609831659919770       11.707987675783592       -0.345027028825059       -0.256511106539607       -0.538809617972624
Mo          6.545069268053537        9.552376296340539       10.000007589386426        1.733108395699612        0.405863470555708        0.000000000000000
Se          6.614142753653510       11.484648036422763        8.319001242175824       -0.573659908446737       -0.071896046918143        0.123950367658692
Se          6.614142753653510       11.484648036422763       11.681017919920560       -0.573659908446737       -0.071896046918143       -0.123950367658692
