# total energy = -9529.689652807408 eV 

 CRYSTAL
 PRIMVEC
        6.506022605555400        0.000000000000000        0.000000000000000
       -3.253011302777700        5.634378226976116        0.000000000000000
        0.000000000000000        0.000000000000000       19.999994935150113
 PRIMCOORD
12 1
Se          3.192880039448115        5.640387840056867        8.459609435006900        0.113028573662190       -0.388731945430802       -0.323166728654043
Se         -0.029335005326189        5.666048243815438        8.246964640360146       -0.206121061618625       -0.120446209595217        1.418058129129930
Se          4.888840084560311        2.794644443955287        8.485703139871001       -0.217014059246860        0.570855604976320       -1.466648915255095
Se          1.583612094952684        2.764674450822796        8.301934675956744        0.186626434522819        0.254184514249903        1.268640201953936
Se          3.197284616752076        5.662032076061029       11.725681578165254       -0.158735609193773       -0.637100107511660        1.262699151225878
Se         -0.054257626121290        5.673889952861914       11.635111237473316        0.174666428606124       -0.605574254909784        2.828110867881672
Se          4.856218236613795        2.756311609365615       11.658691015202631        0.444271912283796        1.325517143047892        2.592639622127906
Se          1.609150836088531        2.854231153192787       11.756373089204699       -0.325891842111726       -0.322258357501482        0.683246801880175
Mo          1.571968266295521        0.915094199948226       10.141971242271225        0.024918628747215        1.316331615791623       -3.024705730923015
Mo          4.808894078783247        0.974439535747060       10.103946793153057        0.510407399996411       -1.764363768128124       -2.330213433013767
Mo         -0.007087010424231        3.796599250505762       10.076931835488010        0.405158730864463       -0.560102218312093       -1.516421380920926
Mo          3.237493137658929        3.705155150977899       10.102870697014097       -0.951315279401603        0.931688497544286       -1.392239099653513
