# total energy = -9513.110356774778 eV 

 CRYSTAL
 PRIMVEC
        5.443805113637699        0.000000000000000        0.000000000000000
       -2.721902556818850        4.714471323538089        0.000000000000000
        0.000000000000000        0.000000000000000       19.999957500357748
 PRIMCOORD
12 1
Se          2.708389399385267        4.709092844085815        8.198856088554511        0.049717186923175        0.144132765157301       -2.557692401021323
Se         -0.026324064007506        4.694756038938539        8.191663733238375        0.021224980296128        0.149873783970076       -2.318748878897521
Se          4.063695996272362        2.344802010889496        8.194443884509909        0.228240014883181        0.053069649832387       -2.563341631410248
Se          1.345508836443569        2.345428048477564        8.201425564568149       -0.238361166997691       -0.110830022367101       -2.507534269709061
Se          2.697720085743048        4.700592886781381       11.798705593172725       -0.088834482109403       -0.114301527405844        2.732909303060120
Se         -0.016273166626197        4.694689624516152       11.802352942598862        0.117920356721524        0.280939939915855        2.970252569861664
Se          4.058073634350996        2.343266313466938       11.753901443945953       -0.166250947090563        0.018104173885206        3.535311105951260
Se          1.334835712137771        2.342051256165575       11.765900134796922        0.361344285215133        0.238202529861793        3.596309784363843
Mo          1.345318847645103        0.779679732932066       10.035631318629111       -0.028254636588846       -0.481412542476848       -1.323878064050559
Mo          4.063986695465429        0.781127785092294        9.990141794338530       -0.080423885692031       -0.549747352815845       -0.293591315781386
Mo         -0.016321072111197        3.138077102712361       10.024725199464449       -0.082124414082362        0.071627109407365       -1.362895086168715
Mo          2.704161740334016        3.134037799318042        9.974984063380118       -0.094197548588676        0.300341493035656        0.092898883801927
