# total energy = -38122.86598603006 eV 

 CRYSTAL
 PRIMVEC
       26.555490215667398        0.000000000000000        0.000000000000000
       -3.319436276958425        5.749422964633285        0.000000000000000
        0.000000000000000        0.000000000000000       20.000028456517960
 PRIMCOORD
48 1
Mo          1.610763092266630        0.974066003306766       10.000008917160937       -0.603356677442805        0.088601797169390        0.000000000000000
Se          1.580872232479874        2.883875781990070        8.330693624517782        0.043616727727926        0.108928176509333       -0.015295499537463
Se          1.580872232479874        2.883875781990070       11.669329520902133        0.043616727727926        0.108928176509333        0.015295499537463
Mo         -0.068452087128926        3.857923196453685       10.000008917160937       -0.241690747078548       -0.192456156434273        0.000000000000000
Se         -0.093902868951621        5.768930627745715        8.330749391047235        0.331931880355701       -0.023042236822112       -0.091262633019334
Se         -0.093902868951621        5.768930627745715       11.669271098823659        0.331931880355701       -0.023042236822112        0.091262633019334
Mo          4.910702328308711        0.983206403038999       10.000008917160937       -0.573069068676405       -0.035116656880581        0.000000000000000
Se          4.885251546486016        2.894216489880050        8.330749391047235        0.055810704136789        0.097567752117623       -0.013271783335423
Se          4.885251546486016        2.894216489880050       11.669271098823659        0.055810704136789        0.097567752117623        0.013271783335423
Mo          3.234225019954391        3.864593935595861       10.000008917160937       -0.073671137333451       -0.158258926454784        0.000000000000000
Se          3.214823578802825        5.777149551967463        8.330789224282558        0.252561118988859       -0.012555216564354       -0.073832088463228
Se          3.214823578802825        5.777149551967463       11.669231265588335        0.252561118988859       -0.012555216564354        0.073832088463228
Mo          8.213382090941050        0.989877142181175       10.000008917160937       -0.412494348570016       -0.043784877949770        0.000000000000000
Se          8.193977994240463        2.902432758552778        8.330789224282558        0.044461078383179        0.061990353344772       -0.014837328749503
Se          8.193977994240463        2.902432758552778       11.669231265588335        0.044461078383179        0.061990353344772        0.014837328749503
Mo          6.540696906589527        3.868372781853550       10.000008917160937       -0.037733783957264       -0.097197513097049        0.000000000000000
Se          6.528566358659010        5.782726204912755        8.330813124223752        0.169279965077634       -0.011722435878493       -0.052245353790748
Se          6.528566358659010        5.782726204912755       11.669210021196164        0.169279965077634       -0.011722435878493        0.052245353790748
Mo         11.519851322027163        0.993658643987886       10.000008917160937       -0.227592867928469       -0.043958941711526        0.000000000000000
Se         11.507720774096647        2.908009411498068        8.330813124223752        0.030681759057053        0.023527404205322       -0.016018494069306
Se         11.507720774096647        2.908009411498068       11.669210021196164        0.030681759057053        0.023527404205322        0.016018494069306
Mo          9.851773515228059        3.869026046912855       10.000008917160937       -0.012399664753626       -0.026502429001893        0.000000000000000
Se          9.847686625283869        5.785312709659761        8.330815779772774        0.075362923969129       -0.010818178492827       -0.030200962551169
Se          9.847686625283869        5.785312709659761       11.669199399000078        0.075362923969129       -0.010818178492827        0.030200962551169
Mo         14.830933241763740        0.994309253498170       10.000008917160937       -0.029770559689751       -0.039531242980064        0.000000000000000
Se         14.826843696270528        2.910598571794096        8.330815779772774        0.014879751970610       -0.015881454209608       -0.016685695637632
Se         14.826843696270528        2.910598571794096       11.669199399000078        0.014879751970610       -0.015881454209608        0.016685695637632
Mo         13.167980644576259        3.866508586440411       10.000008917160937        0.013603455791354        0.045606248242649        0.000000000000000
Se         13.172200311971530        5.784747077718166        8.330802502027666       -0.022431085327734       -0.010348437735474       -0.009152617121106
Se         13.172200311971530        5.784747077718166       11.669220643392249       -0.022431085327734       -0.010348437735474        0.009152617121106
Mo         18.147135060013898        0.991791793025725       10.000008917160937        0.167596405975746       -0.031267713729197        0.000000000000000
Se         18.151354727409167        2.910030284303480        8.330802502027666       -0.001531092616332       -0.053701370161241       -0.016631702447132
Se         18.151354727409167        2.910030284303480       11.669220643392249       -0.001531092616332       -0.053701370161241        0.016631702447132
Mo         16.489525427457806        3.860979733377508       10.000008917160937        0.038207381371081        0.114791579887243        0.000000000000000
Se         16.501794063937446        5.781063831225253        8.330770635439407       -0.117256240478369       -0.010137607182092        0.009306369158817
Se         16.501794063937446        5.781063831225253       11.669249854431488       -0.117256240478369       -0.010137607182092       -0.009306369158817
Mo         21.468679842895444        0.986265595511844       10.000008917160937        0.353025991442473       -0.012944224646387        0.000000000000000
Se         21.480948479375083        2.906349693359589        8.330770635439407       -0.015511986520326       -0.084057884523137       -0.018167680161652
Se         21.480948479375083        2.906349693359589       11.669249854431488       -0.015511986520326       -0.084057884523137        0.018167680161652
Mo         19.816267119774562        3.852787364645975       10.000008917160937        0.062135106517399        0.175590740605404        0.000000000000000
Se         19.835817271671338        5.774494002945898        8.330722835557019       -0.202214011509846       -0.012130727242848        0.023460041272412
Se         19.835817271671338        5.774494002945898       11.669300309862898       -0.202214011509846       -0.012130727242848       -0.023460041272412
Mo         24.795421535212199        0.978073226780311       10.000008917160937        0.538107192275258        0.046213028859701        0.000000000000000
Se         24.814982309305059        2.899777209531211        8.330722835557019        0.002462603707679       -0.071402394890711        0.043250345363816
Se         24.814982309305059        2.899777209531211       11.669300309862898        0.002462603707679       -0.071402394890711       -0.043250345363816
Mo         23.147759589290903        3.842449312305015       10.000008917160937        0.064470183451325        0.178890495876270        0.000000000000000
Se         23.173369704054892        5.765451858527463        8.330661757929523       -0.174787527619103        0.039446653648280        0.152100103191708
Se         23.173369704054892        5.765451858527463       11.669361387490394       -0.174787527619103        0.039446653648280       -0.152100103191708
