# total energy = -38122.62719337571 eV 

 CRYSTAL
 PRIMVEC
       26.555490215667398        0.000000000000000        0.000000000000000
       -3.319436276958425        5.749422964633285        0.000000000000000
        0.000000000000000        0.000000000000000       20.000028456517960
 PRIMCOORD
48 1
Mo          1.698797197880588        0.926449353801053       10.000008917160937       -1.218872878496725        0.332014927024899        0.000000000000000
Se          1.656154391692270        2.835720056032978        8.330359025341064       -0.002502712934908        0.175158280860539        0.006096859649216
Se          1.656154391692270        2.835720056032978       11.669661464529831       -0.002502712934908        0.175158280860539       -0.006096859649216
Mo          0.011201105772969        3.823199237447678       10.000008917160937       -0.669768815979127       -0.344613595252084        0.000000000000000
Se         -0.041168976481349        5.731606886247595        8.330579435909854        0.610008895622882       -0.107332549174831       -0.171235032794610
Se         -0.041168976481349        5.731606886247595       11.669441053961039        0.610008895622882       -0.107332549174831        0.171235032794610
Mo          4.990358176759627        0.948482444032992       10.000008917160937       -1.344346368348389        0.096734714321332        0.000000000000000
Se          4.937988094505309        2.856892748381930        8.330579435909854        0.086914124300607        0.226086200803078       -0.006224129312538
Se          4.937988094505309        2.856892748381930       11.669441053961039        0.086914124300607        0.226086200803078        0.006224129312538
Mo          3.295894834882235        3.844355996502501       10.000008917160937       -0.152825668827861       -0.379552331714445        0.000000000000000
Se          3.243787651981053        5.753454088048024        8.330783913184515        0.648271812847049       -0.076908414769595       -0.202523315358284
Se          3.243787651981053        5.753454088048024       11.669231265588335        0.648271812847049       -0.076908414769595        0.202523315358284
Mo          8.275051905868894        0.969639203087815       10.000008917160937       -1.224129244147152        0.019456831862456        0.000000000000000
Se          8.222942067418691        2.878737294633338        8.330783913184515        0.098765886725870        0.181098046036442       -0.018939011454514
Se          8.222942067418691        2.878737294633338       11.669231265588335        0.098765886725870        0.181098046036442        0.018939011454514
Mo          6.580338942383475        3.860607956514489       10.000008917160937       -0.091687893672133       -0.301287916531998        0.000000000000000
Se          6.538431723274130        5.771809242885093        8.330940590576787        0.557136706601468       -0.071143227576309       -0.177094579516055
Se          6.538431723274130        5.771809242885093       11.669079899294108        0.557136706601468       -0.071143227576309        0.177094579516055
Mo         11.559490702272091        0.985891163099803       10.000008917160937       -0.881667148981292       -0.042751551127765        0.000000000000000
Se         11.517588794260789        2.897095105019429        8.330940590576787        0.092129609392512        0.102244076635818       -0.028774513880235
Se         11.517588794260789        2.897095105019429       11.669079899294108        0.092129609392512        0.102244076635818        0.028774513880235
Mo          9.871190889673755        3.868861402873518       10.000008917160937       -0.045508546278887       -0.153393882880270        0.000000000000000
Se          9.847482148009208        5.783185614893485        8.331014945949393        0.354587165979227       -0.050311626239541       -0.118687317137060
Se          9.847482148009208        5.783185614893485       11.669000232823461        0.354587165979227       -0.050311626239541        0.118687317137060
Mo         14.850342649562370        0.994147265007854       10.000008917160937       -0.381172127429456       -0.092087443281835        0.000000000000000
Se         14.826633907897822        2.908471477027821        8.331014945949393        0.067492002346329        0.005610406713851       -0.033712062596279
Se         14.826633907897822        2.908471477027821       11.669000232823461        0.067492002346329        0.005610406713851        0.033712062596279
Mo         13.173891896698267        3.867546906107843       10.000008917160937        0.009825732229344        0.023415046946995        0.000000000000000
Se         13.172911999109308        5.785416276071602        8.330993701557219        0.086479607672294       -0.025611284248206       -0.050824047328433
Se         13.172911999109308        5.785416276071602       11.669018821666610        0.086479607672294       -0.025611284248206        0.050824047328433
Mo         18.153046312135903        0.992832768242179       10.000008917160937        0.173680667213846       -0.113488544223167        0.000000000000000
Se         18.152077036743034        2.910699482656915        8.330993701557219        0.030794630536242       -0.088288893774919       -0.033123279709394
Se         18.152077036743034        2.910699482656915       11.669018821666610        0.030794630536242       -0.088288893774919        0.033123279709394
Mo         16.491623311184846        3.856914087825490       10.000008917160937        0.062426155525239        0.195864412307002        0.000000000000000
Se         16.513595323789289        5.778073683026969        8.330882168498313       -0.189165657138922       -0.005111869588231        0.005051705747387
Se         16.513595323789289        5.778073683026969       11.669140976921604       -0.189165657138922       -0.005111869588231       -0.005051705747387
Mo         21.470777726622483        0.982199949959825       10.000008917160937        0.682897388804508       -0.094440003725066        0.000000000000000
Se         21.492749739226927        2.903356889612283        8.330882168498313       -0.004922379200617       -0.158275895743227       -0.032427538883232
Se         21.492749739226927        2.903356889612283       11.669140976921604       -0.004922379200617       -0.158275895743227        0.032427538883232
Mo         19.824727698957275        3.838986476380892       10.000008917160937        0.110047378215276        0.324183857518898        0.000000000000000
Se         19.865466476497129        5.762557310093954        8.330701591164848       -0.415027657646208        0.002799932593091        0.040458640304516
Se         19.865466476497129        5.762557310093954       11.669318898706047       -0.415027657646208        0.002799932593091       -0.040458640304516
Mo         24.803882114394913        0.964269682966207       10.000008917160937        1.112967035103258        0.038189640751345        0.000000000000000
Se         24.844620891934767        2.887843172228290        8.330701591164848        0.126467221667302       -0.123971964934892        0.138345980687815
Se         24.844620891934767        2.887843172228290       11.669318898706047        0.126467221667302       -0.123971964934892       -0.138345980687815
Mo         23.170581377582245        3.817176452266765       10.000008917160937        0.124444019686124        0.324177172647693        0.000000000000000
Se         23.222369894600838        5.741822783333562        8.330483836145078       -0.280583584858553        0.097747986529722        0.321012143242647
Se         23.222369894600838        5.741822783333562       11.669531342627772       -0.280583584858553        0.097747986529722       -0.321012143242647
