# total energy = -9506.216099900228 eV 

 CRYSTAL
 PRIMVEC
        9.161539876487199        0.000000000000000        0.000000000000000
       -4.580769938243599        7.934122571534827        0.000000000000000
        0.000000000000000        0.000000000000000       19.999989688886860
 PRIMCOORD
12 1
Se          4.567174213066893        7.899186871523818        8.349774306499150        0.028282918736251        0.022136950994722        1.733089883748584
Se         -0.045428411631549        7.922053158901543        8.335025143451993       -0.011222356090287       -0.017533388728488        1.762085255489008
Se          6.834268715514686        3.940187740847713        8.375714290505435        0.057404017477412       -0.021867242152651        1.636977119559730
Se          2.273079736449103        3.942620129684921        8.362224839191295       -0.075719793247293        0.017601265882260        1.754630595653923
Se          4.548107216275947        7.919253392315287       11.643331401324518       -0.007925171923731       -0.032486674282351       -1.697994824144202
Se         -0.034321876839284        7.899301390772274       11.653208457465359        0.035947123572563        0.009922919972245       -1.742053010482077
Se          6.831293963516790        3.945768950940470       11.625551600886221       -0.072453719442883       -0.016308257524992       -1.620268541093743
Se          2.247786557158097        3.951741358785951       11.688724999104538        0.025458303541788        0.044961672392247       -1.785030561678650
Mo          2.252911522565004        1.291950275688361       10.006462891596231       -0.005934880077715       -0.049442592982916       -0.100087434340974
Mo          6.837899433767738        1.294009789852595       10.012427970209812       -0.007567274203843        0.041546731648314        0.023524061769720
Mo         -0.012132627258432        5.262458132757309        9.991708231625148        0.002217577466980        0.005589066548082       -0.039010337246951
Mo          4.544514060336389        5.272525748927580       10.033699233495041        0.031513511301190       -0.004120708876902        0.074137792765632
