# total energy = -9427.11110111335 eV 

 CRYSTAL
 PRIMVEC
        4.647181682993100        0.000000000000000        0.000000000000000
       -2.323590841496550        4.024575517014100        0.000000000000000
        0.000000000000000        0.000000000000000       20.000094397824135
 PRIMCOORD
12 1
Se          2.296349991907181        4.020114222598426        8.407676918407603        1.150932218448380       -1.312315293749688      -22.645980797029715
Se         -0.019098987280765        4.020348440555249        8.393553203836650       -0.695421752117147       -1.190684062178203      -22.003198034773106
Se          3.462694074086770        2.003030572594527        8.470648089084833        0.110312716180021        1.810390649035814      -24.714304630398747
Se          1.135713113552476        2.002677851504788        8.436101405171629        0.185064488654772        0.801552567137699      -22.547556610066586
Se          2.317822759591619        4.007987866714823       11.567156329224121       -0.975286199100321        1.331035504227461       23.653559037816159
Se         -0.023043050375121        4.012064374487146       11.590730552465608        1.067708143052828        1.357295220982533       22.678853908289792
Se          3.478029773640647        1.997081250603960       11.589354057251105       -0.501806284749701       -1.625317675736821       22.934568743824737
Se          1.142270286907179        2.001430083222905       11.594783359611347        0.301740430890478       -0.754487474309816       22.885292758401079
Mo          1.147079190512741        0.658420136337155        9.994342318678026        0.686628318268084        0.202506088959410        0.179432741775152
Mo          3.477071524777613        0.655845132966609        9.960066565456941       -1.033477231606884       -1.355621174966591        4.313954362359651
Mo         -0.021118187722026        2.672976648941842       10.038326499153051        0.772082312431302        0.944008458064316       -2.443864471029296
Mo          2.310997443853807        2.673477615127269       10.036147900380064       -1.068476903241381       -0.208363064576545       -2.290756494948248
