# total energy = -9521.887494095598 eV 

 CRYSTAL
 PRIMVEC
        5.974940318459000        0.000000000000000        0.000000000000000
       -2.987470159229500        5.174447689293456        0.000000000000000
        0.000000000000000        0.000000000000000       20.000067101485772
 PRIMCOORD
12 1
Se          2.935033485500672        5.156893314637823        8.362968017804750        1.791459608004659        0.626536982566339       -3.263923846987076
Se          0.047911851425659        5.141789263006791        8.312168477723180       -1.854526996944698        0.584035599887892       -2.507828661152504
Se          4.485416376780700        2.533663284643997        8.504363187958987        0.287986565497016        1.097188939286894       -9.223390880993271
Se          1.409448389024344        2.601193852605316        8.310076053623655        0.939360415693527       -1.121096095598736       -2.180443264547365
Se          2.974808065706622        5.154459123952082       11.521804842813941       -1.953579818911513       -1.145944276087870        5.904325074100320
Se         -0.062301300194604        5.148511668359088       11.503785020307500        3.401983149544377       -1.178108019668942        8.118762965607582
Se          4.408186688200426        2.608621898409225       11.784234378999201        0.690634098782350       -0.450164112029972        1.055631409000480
Se          1.509777794369812        2.532593172832962       11.828961587235122       -0.407431587074098        1.923712585699723        1.068797519948780
Mo          1.502539751668031        0.885626566293108       10.179661766500908       -1.774537370770549        2.228465322399260       -9.517292786175251
Mo          4.452602602045754        0.883114701383227        9.959944688676185        0.107392198794813       -1.701589485079372        3.476871447657965
Mo         -0.045676028758492        3.437074260794998        9.981587714991740        2.165104313347071       -1.063748899526565        2.652126491206477
Mo          3.009312748551691        3.407204936648990        9.912162493455437       -3.393844833073385        0.200711201040919        4.416364789444295
