# total energy = -9519.868541566346 eV 

 CRYSTAL
 PRIMVEC
        5.709346257185899        0.000000000000000        0.000000000000000
       -2.854673128592950        4.944436592379419        0.000000000000000
        0.000000000000000        0.000000000000000       19.999925579116063
 PRIMCOORD
12 1
Se          2.827336778713543        4.933656775711226        7.914508169391861        0.063922795343824        0.018177707468459        1.766858767750103
Se         -0.025013216887357        4.937379269470910        7.912322631644610        0.017354182758113       -0.088459357990641        1.796831159128154
Se          4.259704989866476        2.460670001515299        7.917147600166558        0.088341344302833        0.027439853633152        1.758473111044533
Se          1.415532490909743        2.459477319082173        7.928204320128224       -0.164693629210274        0.027728331536683        1.902137678107066
Se          2.834546541167118        4.938770637153787       12.100511779358950        0.021401100941332       -0.040513147715878       -1.968513821183054
Se         -0.019069216499001        4.930661652664706       12.114016666995697        0.012643148331740        0.041289106996498       -1.834411705268568
Se          4.268861068459125        2.452789390876505       12.112349537888599       -0.060226575788427        0.023685784230790       -1.901702647257892
Se          1.403259680195296        2.468985664338891       12.109151162115324       -0.015653140146920       -0.019421607733415       -1.782820697524599
Mo          1.409672988845993        0.812184764619857        9.969779188700166        0.009190155244026        0.011590281116983       -0.153021329865817
Mo          4.274523027142377        0.805638999135994       10.011953558567374        0.011306431201209       -0.019885949171719        0.645085443276234
Mo         -0.026005501266856        3.286448719573516        9.961618249160145       -0.000611408604809        0.022028964613722       -0.341963043819378
Mo          2.833068391421132        3.278270651994723        9.985140755739751        0.017025595627354       -0.003660224095063        0.113047085613219
