# total energy = -9524.885991578245 eV 

 CRYSTAL
 PRIMVEC
        6.107710890233100        0.000000000000000        0.000000000000000
       -3.053855445116550        5.289430323714121        0.000000000000000
        0.000000000000000        0.000000000000000       20.000047449589029
 PRIMCOORD
12 1
Se          3.038419427383664        5.282118783007422        7.933545097590670       -0.047854421850912       -0.063013652859970        2.971232160603599
Se         -0.017331851193214        5.281052987457077        7.999694049616251       -0.030975379169203       -0.037511640544919        2.804210396441035
Se          4.570158804581264        2.624083314469853        7.947280117840626       -0.098983659260888        0.076810455695401        2.969589996281095
Se          1.519544721634161        2.622602805350060        7.945272513271006       -0.082984962694765        0.094832611353133        2.958244741404811
Se          3.024299621347623        5.272314685486420       12.004740568705232        0.003557122812251        0.093671757757375       -2.611153630040053
Se         -0.026332173961062        5.266224686957769       12.027147316877141       -0.018392651788737        0.111285879161183       -2.789184605745643
Se          4.556439053608534        2.640726826645738       12.015837668621696       -0.047074605913828       -0.074679010222791       -2.730153593461153
Se          1.498364401809011        2.641776131376680       12.011752831578308       -0.027238279055284       -0.093082203539197       -2.671983129789067
Mo          1.492990837767784        0.873470452894215       10.023987939243433        0.070812840672533       -0.025429764283952       -0.270769936819463
Mo          4.555508238468862        0.869755132359686       10.014544807436044        0.031123731887863        0.036298079310816       -0.222127985718538
Mo         -0.028511405206697        3.511632651737144        9.975828028102855        0.059134113567302       -0.036058195278735       -0.070919284390948
Mo          3.014889471179041        3.521243134822926       10.030581823920528        0.188876150793668       -0.083124316548342       -0.336985642986536
