# total energy = -9525.701471949396 eV 

 CRYSTAL
 PRIMVEC
        7.302698953924899        0.000000000000000        0.000000000000000
       -3.651349476962450        6.324319861572811        0.000000000000000
        0.000000000000000        0.000000000000000       20.000054981792154
 PRIMCOORD
12 1
Se          3.633968323182213        6.349909248977260        8.087328679790616       -0.149885353939469       -0.014278627783039        3.134522738192156
Se         -0.035924897233938        6.300860671453223        8.334873378121076       -0.005676998315468       -0.054780205529525        1.974595254206413
Se          5.404263774416243        3.177899437841800        8.170888352031112        0.171188238696176       -0.064700811507891        2.779933515329481
Se          1.830259372884499        3.086501778814057        8.359609080017810       -0.091530284977958        0.434109108279471        2.291792392874562
Se          3.592272102964988        6.331504256803682       11.727989196294205       -0.130634210421776        0.161891639733735       -1.382245988533618
Se         -0.073354150452385        6.291677527518662       11.808587624108885        0.317654023903955        0.153773634986789       -1.888350131247149
Se          5.532345081099237        3.099845270342669       11.634059691539136       -0.453779598910050        0.047055322631507       -0.914163336349588
Se          1.795196194127124        3.096276441363886       11.874403928701028        0.084773679962913        0.360062332606396       -1.777868493513991
Mo          1.782120711650121        1.067501230385788       10.111143167369312        0.098888271291004       -0.373552402697699       -0.918417999761018
Mo          5.457771379921547        1.021368620554054        9.922137634123409        0.027426998111604        0.168289318587168       -0.155685765261795
Mo          0.025913627238003        4.212521726727331       10.118857008274343       -0.164490769080251       -0.150620946882429       -1.135736220647696
Mo          3.583342362684129        4.258998293679796       10.192664656331766        0.296066517900181       -0.667247848203621       -2.008375965287757
