# total energy = -9526.96639927692 eV 

 CRYSTAL
 PRIMVEC
        7.037104892651799        0.000000000000000        0.000000000000000
       -3.518552446325899        6.094308764658774        0.000000000000000
        0.000000000000000        0.000000000000000       19.999937665154004
 PRIMCOORD
12 1
Se          3.519660790346492        6.069485377149945        8.273394739560697        0.287833070569736       -0.068511188094632        1.734970903661444
Se         -0.041362695138029        6.020619017064882        7.984052912531489        0.241803875668167        0.241932173773214        2.760285650416826
Se          5.269317994831676        3.011965339313682        8.359802646827077       -0.362266026110104        0.279021124769644        0.215180604763726
Se          1.755318555371322        3.009719095431947        8.132662493654509        0.169819639872207        0.047517350075931        2.550602323777331
Se          3.425939923675666        6.094900585180246       11.927787236471410        0.245186420497800       -0.029468712043811       -2.677829563878534
Se         -0.105095643019308        6.133484327596167       11.653807409422861        1.512546726726447       -0.928444535236937       -0.817526838212881
Se          5.251668935760906        3.079862142159943       11.698212245005983        0.381648295947584       -0.234009572953792       -1.881597382888569
Se          1.744477895284192        3.048747582877083       11.779371879443426       -0.134038352527609        0.150391604378018       -2.050917200083001
Mo          1.762848257606460        0.952276515704405       10.193117657986596       -1.445512638057647        0.910458632149970       -2.647243964122658
Mo          5.288611625315860        0.961616865028422        9.854908767161836       -0.635337872617900       -0.063047077215994        1.541821577505318
Mo          0.015770855774922        4.081958545662366        9.809070473312081        0.118194693551352       -0.065726167906536        1.404303492405176
Mo          3.510017141801602        4.091677491229608       10.044756486666286       -0.379878090630464       -0.240113888805506       -0.132049346233748
