# total energy = -38122.773888107455 eV 

 CRYSTAL
 PRIMVEC
       53.110927513609894        0.000000000000000        0.000000000000000
       -1.659716484800309        2.874735173529163        0.000000000000000
        0.000000000000000        0.000000000000000       19.999981973800079
 PRIMCOORD
48 1
Mo          1.584553900183049        0.869085973461707        9.999996297992791        0.919858075284792        0.719004177954694        0.000000000000000
Se          1.599828602935963        2.788626426751347        8.338803329407602        0.044379831486998        0.074774655303106       -0.112010416355611
Se          1.599828602935963        2.788626426751347       11.661189266577978        0.044379831486998        0.074774655303106        0.112010416355611
Mo          4.906642416159348        0.881035932152269        9.999996297992791        0.309009456994414        0.037495442587769        0.000000000000000
Se          4.929193315981626        2.802424645719383        8.341384520484764       -0.160725129708496       -0.001684844654043       -0.129586485415638
Se          4.929193315981626        2.802424645719383       11.658608075500815       -0.160725129708496       -0.001684844654043        0.129586485415638
Mo          8.231721077354662        0.896937343849844        9.999996297992791        0.381010147857955        0.011205643912275        0.000000000000000
Se          8.260135423574443        2.819860963222101        8.343280580597000       -0.196813921128515       -0.004580679437879       -0.154281942308785
Se          8.260135423574443        2.819860963222101       11.656717326481331       -0.196813921128515       -0.004580679437879        0.154281942308785
Mo         11.559439351647404        0.915791723117175        9.999996297992791        0.433999322125453        0.016907581939546        0.000000000000000
Se         11.591937928192982        2.839851916338224        8.344374665703780       -0.225019192514618       -0.009548824295207       -0.165159513311163
Se         11.591937928192982        2.839851916338224       11.655617930281799       -0.225019192514618       -0.009548824295207        0.165159513311163
Mo         14.889276751947939        0.936404074085207        9.999996297992791        0.474752610983843        0.023072061632103        0.000000000000000
Se         14.923830721388294        2.861133464992927        8.344597731599338       -0.238838106847111       -0.013680588920640       -0.165071324433346
Se         14.923830721388294        2.861133464992927       11.655400175478995       -0.238838106847111       -0.013680588920640        0.165071324433346
Mo         18.220580013847847        0.957489112308110        9.999996297992791        0.478893374474359        0.025482214811867        0.000000000000000
Se         18.255017139247673        2.882367213812868        8.343933845005417       -0.237189514763833       -0.016746116588906       -0.153887792018132
Se         18.255017139247673        2.882367213812868       11.656058750980163       -0.237189514763833       -0.016746116588906        0.153887792018132
Mo         21.552594962176439        0.977719064598044        9.999996297992791        0.453915096107163        0.034191830660439        0.000000000000000
Se         21.584769562064189        2.902220078517456        8.342425494664031       -0.220711821464843       -0.018658503974344       -0.132851787888756
Se         21.584769562064189        2.902220078517456       11.657567101321549       -0.220711821464843       -0.018658503974344        0.132851787888756
Mo         24.884546177392018        0.995819268694683        9.999996297992791        0.398287197486782        0.034636374595559        0.000000000000000
Se         24.912434725429414        2.919449263402871        8.340173591337454       -0.190143448107841       -0.019345503045853       -0.103269175924032
Se         24.912434725429414        2.919449263402871       11.659829626833629       -0.190143448107841       -0.019345503045853        0.103269175924032
Mo         28.215636995581875        1.010658461841985        9.999996297992791        0.323362646802430        0.033826733848484        0.000000000000000
Se         28.237497453346474        2.932971305547836        8.337310912344471       -0.147694001736447       -0.018920756613917       -0.067347763394564
Se         28.237497453346474        2.932971305547836       11.662686994733862       -0.147694001736447       -0.018920756613917        0.067347763394564
Mo         31.545134485946321        1.021301891715713        9.999996297992791        0.218486016464073        0.030290694091572        0.000000000000000
Se         31.559596591508274        2.941931119019382        8.334018034838627       -0.096041801709910       -0.017238740174615       -0.027605175640255
Se         31.559596591508274        2.941931119019382       11.665979872239705       -0.096041801709910       -0.017238740174615        0.027605175640255
Mo         34.872417250633454        1.027080360629194        9.999996297992791        0.106648635428493        0.022632917016033        0.000000000000000
Se         34.878578118225029        2.945771039078616        8.330507402529976       -0.038656039073096       -0.014575847441222        0.013131658150553
Se         34.878578118225029        2.945771039078616       11.669490504548355       -0.038656039073096       -0.014575847441222       -0.013131658150553
Mo         38.196975424739129        1.027627403182584        9.999996297992791       -0.009556537608135        0.015689906938547        0.000000000000000
Se         38.194452655682234        2.944246755458976        8.326996770221328        0.021041403448427       -0.011054205868443        0.052119369679580
Se         38.194452655682234        2.944246755458976       11.673001136857005        0.021041403448427       -0.011054205868443       -0.052119369679580
Mo         41.518495653791035        1.022916463912126        9.999996297992791       -0.135078107110388        0.007940598549588        0.000000000000000
Se         41.507464514146456        2.937453867829985        8.323703892715484        0.079379760231926       -0.006575342161222        0.087100015142187
Se         41.507464514146456        2.937453867829985       11.676288703270096        0.079379760231926       -0.006575342161222       -0.087100015142187
Mo         44.836845160470375        1.013234341826395        9.999996297992791       -0.242590890697318       -0.001850166661146        0.000000000000000
Se         44.818006714481299        2.925822574704504        8.320841213722501        0.130491257022166       -0.002554135021099        0.116118012600535
Se         44.818006714481299        2.925822574704504       11.679156693355832        0.130491257022166       -0.002554135021099       -0.116118012600535
Mo         48.152092988982922        0.999197123684548        9.999996297992791       -0.340547393786544       -0.025575545898303        0.000000000000000
Se         48.126631610332900        2.910075184696719        8.318583999303172        0.170481442121483       -0.004133050177588        0.142326307269417
Se         48.126631610332900        2.910075184696719       11.681408596682408        0.170481442121483       -0.004133050177588       -0.142326307269417
Mo         51.464515316151747        0.981681139790560        9.999996297992791       -0.590892735081440       -0.132146019755787        0.000000000000000
Se         51.434034954851683        2.891215494336636        8.317080960054536       -0.283719560784901       -0.341879482929318       -0.272505689338835
Se         51.434034954851683        2.891215494336636       11.682916947023795       -0.283719560784901       -0.341879482929318        0.272505689338835
