# total energy = -9510.936912088215 eV 

 CRYSTAL
 PRIMVEC
        8.364863528117699        0.000000000000000        0.000000000000000
       -4.182431764058849        7.244180936938131        0.000000000000000
        0.000000000000000        0.000000000000000       19.999945357962428
 PRIMCOORD
12 1
Se          4.158593575976419        7.235826947732599        8.125401743411921        0.006283521822089       -0.039174373701900        2.953962052956408
Se         -0.041243796111737        7.230992893099700        8.075110510908171       -0.007028627850994       -0.030307406269584        3.042173042270747
Se          6.234858100935686        3.594950668752087        8.099050750325643       -0.001366027719659        0.039238651309638        3.005619395191563
Se          2.075952515549668        3.597297849458077        8.097504923545648        0.000437601953484        0.022216655228318        2.987651232724332
Se          4.148843491048045        7.221006919019833       11.918265919725625       -0.006246755030462        0.045087913613846       -3.030560649656703
Se         -0.024018032648284        7.231794247025693       11.930206762412013        0.005444570485885       -0.000448400591584       -3.050382321220683
Se          6.252952137233358        3.593653278418876       11.936007795268763        0.036110902917081       -0.025753723426955       -3.074597495828808
Se          2.049164040100871        3.606667333095922       11.919521485741194       -0.034179746470184       -0.026721487089066       -3.048287128318837
Mo          2.053461906981618        1.185488534877308       10.005614779430928       -0.019443462120047        0.011943036628252        0.008927645494021
Mo          6.252848412925609        1.182628588037044       10.017315550534061        0.022505647352711        0.020671164427853        0.079258146998085
Mo         -0.032762660980579        4.799496035719153        9.999092695338055        0.015590148091337       -0.022624689482242        0.087720422612079
Mo          4.155345499468451        4.810522598821917        9.973126485974072       -0.018108287652102        0.005872659353424        0.038515656777795
