# total energy = -38122.88151679835 eV 

 CRYSTAL
 PRIMVEC
       26.555490215667398        0.000000000000000        0.000000000000000
       -3.319436276958425        5.749422964633285        0.000000000000000
        0.000000000000000        0.000000000000000       20.000028456517960
 PRIMCOORD
48 1
Mo          1.634851577441262        0.943875066480574       10.021208165000104        0.041536961451938        0.023981204115957        0.414889846455216
Se          1.599211454022814        2.839775079388911        8.330515702733337        0.055520426460242        0.032053957427055        0.006220786876936
Se          1.670717422526542        2.881058244478187       11.669499476039515       -0.057110911586124       -0.032975441211595       -0.005009539636711
Mo         -0.024866561037951        3.818589204346238       10.021208165000104        0.041532333464180        0.023978633011647        0.414862592749535
Se         -0.060506684456398        5.714491872803597        8.330515702733337        0.055519912239380        0.032054985868779        0.006220786876936
Se          0.010996628498308        5.755775037892874       11.669499476039515       -0.057112968469572       -0.032971584555131       -0.005009539636711
Mo          4.954290509948708        0.943875066480574        9.957156322599914       -0.000749734016662       -0.000442487051672        0.032480246521577
Se          4.929118560773277        2.845821764511018        8.272518512102319        0.029596753038426        0.017087816351645       -0.018135027136921
Se          4.979685525241950        2.875014214905101       11.611499629859475       -0.035234156347527       -0.020342320186662       -0.023170020706296
Mo          3.294569715920474        3.818589204346238        9.957156322599914       -0.000757961550453       -0.000428088867539        0.032480246521577
Se          3.269400422294064        5.720535902376683        8.272518512102319        0.029607808786957        0.017093987001987       -0.018127056713561
Se          3.319964731213716        5.749731008319787       11.611499629859475       -0.035227471476323       -0.020338720640629       -0.023178248240087
Mo          8.273726786907133        0.943875066480574        9.912771476253447       -0.000332958008086       -0.000192318602354        0.033097825776729
Se          8.270627761198963        2.858565744265517        8.241137889314466        0.000606523506621        0.000347099081788       -0.028517917670143
Se          8.277046223184090        2.862270235150603       11.580129629267708       -0.004325625890373       -0.002501684493184       -0.026443293602774
Mo          6.614008648427920        3.818589204346238        9.912771476253447       -0.000308275406714       -0.000177920418220        0.033099111328884
Se          6.610909622719752        5.733279882131182        8.241137889314466        0.000603952402311        0.000351727069545       -0.028517917670143
Se          6.617328084704879        5.736987028565289       11.580129629267708       -0.004329482546837       -0.002495256732410       -0.026443293602774
Mo         11.593160408316535        0.943875066480574        9.908424342505143        0.004953232452332        0.002834642501270        0.034429657809072
Se         11.613610791331620        2.872159499706917        8.250782843360795       -0.029943852120215       -0.017288105377358       -0.022157776939630
Se         11.572941058066325        2.848676479709202       11.589769272215994        0.030077806654742        0.017365495617075       -0.025081122539578
Mo          9.933444925386345        3.818589204346238        9.908424342505143        0.004931635176132        0.002872180624189        0.034429657809072
Se          9.953892652852408        5.746873637572581        8.250782843360795       -0.029946166114093       -0.017289390929513       -0.022133094338258
Se          9.913220264038094        5.723390617574866       11.589769272215994        0.030105317470854        0.017381436463794       -0.025104776699226
Mo         14.912601996373002        0.943875066480574        9.946114549768239        0.005469253087257        0.003157830312979        0.023157936516041
Se         14.947262222202491        2.880365146183558        8.297021262924316       -0.048212319570801       -0.027824747948290       -0.002752367163364
Se         14.878162181112305        2.840470833232561       11.636010347328536        0.048104333189800        0.027782838948045       -0.015519956943686
Mo         13.252881202344769        3.818589204346238        9.946114549768239        0.005536616020167        0.003196396877622        0.023147652098803
Se         13.287541428174258        5.755079284049223        8.297021262924316       -0.048203063595286       -0.027840945905440       -0.002752367163364
Se         13.218441387084070        5.715184971098226       11.636010347328536        0.048112817834021        0.027768183653480       -0.015519956943686
Mo         18.232035617782408        0.943875066480574       10.008538540618209        0.001971265674126        0.001146712522056       -0.004279346012801
Se         18.265054714316566        2.879414459633837        8.358632655773686       -0.046177290509798       -0.026660551916930        0.015745185681202
Se         18.199244898464102        2.841418864233261       11.697619084628885        0.042121116351066        0.024318533001368        0.004300943289001
Mo         16.572314823754173        3.818589204346238       10.008538540618209        0.001978721876623        0.001133857000508       -0.004279346012801
Se         16.605333920288331        5.754131253048524        8.358632655773686       -0.046168805865577       -0.026655666818742        0.015725902398880
Se         16.539524104435866        5.716135657647947       11.697619084628885        0.042126515670116        0.024321618326540        0.004317141246151
Mo         21.551469239191810        0.943875066480574       10.067048252210389       -0.002201379509830       -0.001270896860206       -0.031066653372191
Se         21.567739788046946        2.869745605646313        8.407338080378242       -0.026251489221282       -0.015188541598186        0.021923035116168
Se         21.535429723101547        2.851087718220785       11.746329820331484        0.020763209962134        0.011983145855481        0.020852684392106
Mo         19.891756411810640        3.818589204346238       10.067048252210389       -0.002271313547049       -0.001311263197866       -0.031042227881251
Se         19.908026960665779        5.744459743511977        8.407338080378242       -0.026279514258256       -0.015139947726736        0.021923035116168
Se         19.875706273524290        5.725804511635471       11.746329820331484        0.020759353305670        0.011989830726685        0.020852684392106
Mo         24.870910827248277        0.943875066480574       10.094788117289676        0.003208738178308        0.001861479520108       -0.021719146544422
Se         24.863010568909115        2.855796006636023        8.420785780623454       -0.205330961264303       -0.118547963283483       -0.201051101030640
Se         24.879031496156227        2.865039972780097       11.759769553929633        0.171930516510341        0.099264166741059       -0.182188194263688
Mo         23.211190033220042        3.818589204346238       10.094788117289676        0.003216451491237        0.001848109777699       -0.021719146544422
Se         23.203300397076966        5.730510144501688        8.420785780623454       -0.205374412927134       -0.118572902995285       -0.201055471907966
Se         23.219310702127995        5.739754110645761       11.759769553929633        0.171958541547315        0.099280364698209       -0.182183052055069
