# total energy = -9516.345863068707 eV 

 CRYSTAL
 PRIMVEC
        6.572434350304899        0.000000000000000        0.000000000000000
       -3.286217175152450        5.691892458222800        0.000000000000000
        0.000000000000000        0.000000000000000       20.000068893967864
 PRIMCOORD
12 1
Se          3.261700680538942        5.686039705433854        7.681513586859236        0.038182184548848       -0.069457097370112        3.728784648360819
Se         -0.011590487976763        5.670249431907247        7.684297012806589       -0.060668548619237        0.018552317366359        3.654562780484265
Se          4.896750149114824        2.833459261089256        7.697633139346793       -0.035027439561040        0.041161580222745        3.733486683922109
Se          1.608941787606165        2.836850637214013        7.691901976593328        0.064192504185895       -0.012929055130961        3.777595263904450
Se          3.267082189784972        5.684278950271407       12.319950634921200       -0.033887411910189        0.035077833205507       -3.713492748369389
Se         -0.014023603173246        5.680730492965678       12.301103522178265        0.008754610173989       -0.020160543111978       -3.816512270064965
Se          4.899084020552616        2.824428736291937       12.326939761609315        0.069989830183049       -0.026671093444599       -3.729581176475915
Se          1.622231907105916        2.830905870344163       12.335959770511673       -0.054531579742792       -0.006548859786833       -3.656928453559474
Mo          1.614998285859971        0.930571262356620       10.001690700440209       -0.000934339306087        0.015528441587908        0.012890745676749
Mo          4.908600905491858        0.930894626126655       10.037468404069530        0.017714908692742        0.022760186679355        0.239382409629441
Mo         -0.022891788842112        3.773220101154472       10.018940054392585       -0.005164577226576       -0.003574863431987        0.045366107100138
Mo          3.258724682265124        3.772182971013994        9.969625107731943       -0.008620141418600        0.006261410325027       -0.275554247718658
