# total energy = -38121.502330315096 eV 

 CRYSTAL
 PRIMVEC
       13.277745107833699        0.000000000000000        0.000000000000000
       -6.638872553916849       11.498859207011680        0.000000000000000
        0.000000000000000        0.000000000000000       20.000015178772852
 PRIMCOORD
48 1
Mo          1.604069780957770        0.973589332257395       10.000007589386426        0.547307889046952       -0.688626323427029        0.000000000000000
Se          1.632481499939513        2.870228915568238        8.360895183540061        0.058728393307257       -0.173808965318892       -0.898512767306978
Se          1.632481499939513        2.870228915568238       11.639118667458280        0.058728393307257       -0.173808965318892        0.898512767306978
Mo          0.048808991016397        3.869893083668397       10.000007589386426       -1.345730650908646       -1.009709943369481        0.000000000000000
Se         -0.018074994415294        5.731436931110214        8.373910029294759       -0.131271072959250        0.070241284184522       -1.340331331858609
Se         -0.018074994415294        5.731436931110214       11.626107805027113       -0.131271072959250        0.070241284184522        1.340331331858609
Mo         -1.645842894841526        6.669132535017603       10.000007589386426       -0.852801618008499        0.538017460734855        0.000000000000000
Se         -1.681267918789227        8.599635679451465        8.304820610400657       -0.063155577817856        0.128222257468995        0.611335585446605
Se         -1.681267918789227        8.599635679451465       11.695198551695727       -0.063155577817856        0.128222257468995       -0.611335585446605
Mo         -3.413791917018223        9.514104523841720       10.000007589386426        1.098733658756067        0.867078446018522        0.000000000000000
Se         -3.350523461579396       11.487157530248144        8.284343671895357        0.050271774122743       -0.081544887170991        0.991079721542542
Se         -3.350523461579396       11.487157530248144       11.715668851328473        0.050271774122743       -0.081544887170991       -0.991079721542542
Mo          5.028525055072095        0.956534068666383       10.000007589386426       -1.828198374594131       -0.334881194109176        0.000000000000000
Se          4.960894860365344        2.850383997730070        8.337218308463770       -0.087622720648316        0.141710784897712       -0.185040063163832
Se          4.960894860365344        2.850383997730070       11.662798198083591       -0.087622720648316        0.141710784897712        0.185040063163832
Mo          3.265028060830054        3.762788152756057       10.000007589386426        0.986717071750112        1.021593073267320        0.000000000000000
Se          3.291792011643915        5.730919099051008        8.279700444431146        0.035743749221679        0.046982560379547        1.054483668036700
Se          3.291792011643915        5.730919099051008       11.720318717665238        0.035743749221679        0.046982560379547       -1.054483668036700
Mo          1.557426390168462        6.674618899296160       10.000007589386426        1.905797645091699        0.844233670007383        0.000000000000000
Se          1.628156938357892        8.619423502985670        8.318321421626303        0.103978543603034       -0.109495876340880        0.280340872611732
Se          1.628156938357892        8.619423502985670       11.681688446048506        0.103978543603034       -0.109495876340880       -0.280340872611732
Mo         -0.003687229816445        9.621801642185870       10.000007589386426       -0.639813908110381       -1.234168120923757        0.000000000000000
Se         -0.022598722173533       11.489807768171669        8.380011153171809       -0.143219508906551       -0.149295028389998       -1.530376306671394
Se         -0.022598722173533       11.489807768171669       11.620008008924575       -0.143219508906551       -0.149295028389998        1.530376306671394
Mo          8.196725159703274        0.895781745925490       10.000007589386426        2.132639750561782        1.252957236997025        0.000000000000000
Se          8.266890075951109        2.865171422456664        8.290400979213551        0.102450793422305       -0.050305198478767        0.856564172055082
Se          8.266890075951109        2.865171422456664       11.709618182882835        0.102450793422305       -0.050305198478767       -0.856564172055082
Mo          6.583224196395408        3.848303470123060       10.000007589386426        0.500109098794973       -0.476628745798515        0.000000000000000
Se          6.611635915377151        5.744943053433903        8.360895183540061        0.012452629502403       -0.196759413717153       -0.866802309415677
Se          6.611635915377151        5.744943053433903       11.639118667458280        0.012452629502403       -0.196759413717153        0.866802309415677
Mo          5.027963406454034        6.744607221534062       10.000007589386426       -1.710813578900284       -1.214294255942293        0.000000000000000
Se          4.961078093247832        8.606151068975878        8.373910029294759       -0.194883021792050        0.037968525780725       -1.292900627997909
Se          4.961078093247832        8.606151068975878       11.626107805027113       -0.194883021792050        0.037968525780725        1.292900627997909
Mo          3.333311520596111        9.543846672883268       10.000007589386426       -0.938510151498362        0.328180124947218        0.000000000000000
Se          3.297886496648410       11.474348489542619        8.304820610400657       -0.001986435189552        0.188088621543655        0.630288995085253
Se          3.297886496648410       11.474348489542619       11.695198551695727       -0.001986435189552        0.188088621543655       -0.630288995085253
Mo         11.630717838128554        1.001043725816863       10.000007589386426       -0.826550128787217       -1.487918118545347        0.000000000000000
Se         11.596868882525152        2.863546226455465        8.382051942594883        0.603118593183741        0.354136194283334       -0.951908176055383
Se         11.596868882525152        2.863546226455465       11.617968547276012        0.603118593183741        0.354136194283334        0.951908176055383
Mo         10.007676814960710        3.831248206532047       10.000007589386426       -1.856488492422448       -0.246059053300459        0.000000000000000
Se          9.940049275802981        5.725099463370245        8.337218308463770        0.112843711262334        0.057924408989663       -0.096265230674410
Se          9.940049275802981        5.725099463370245       11.662798198083591        0.112843711262334        0.057924408989663        0.096265230674410
Mo          8.244182476267692        6.637503618396232       10.000007589386426        0.887775835710332        1.232169344433519        0.000000000000000
Se          8.270946427081551        8.605633236916674        8.279700444431146       -0.454382008649775       -0.281789689890159        0.658514578195401
Se          8.270946427081551        8.605633236916674       11.720318717665238       -0.454382008649775       -0.281789689890159       -0.658514578195401
Mo          6.536580805606099        9.549333037161825       10.000007589386426        2.012844801688171        0.733835078943423        0.000000000000000
Se          6.607311353795528       11.494137640851333        8.318321421626303       -0.039577008636774       -0.045165303853563        0.151702867575884
Se          6.607311353795528       11.494137640851333       11.681688446048506       -0.039577008636774       -0.045165303853563       -0.151702867575884
