# total energy = -9474.644857416919 eV 

 CRYSTAL
 PRIMVEC
        5.709346257185899        0.000000000000000        0.000000000000000
       -2.854673128592950        4.944436592379419        0.000000000000000
        0.000000000000000        0.000000000000000       19.999925579116063
 PRIMCOORD
12 1
Se          2.840390627995974        4.922769623333398        8.766173634314784        0.120900266616283        0.657115640340579      -25.709779397648017
Se         -0.009631096201247        4.924141008304374        8.769265816247676       -1.126837114411511        0.272187129514883      -25.350175492940014
Se          4.256375299129285        2.463977425802087        8.733495620077155        0.036363128249847        0.136116833251443      -24.511330600455000
Se          1.405818609187767        2.452507920106026        8.730220168129406       -0.107778892882968       -0.705965593780146      -23.113514518443658
Se          2.829194599985632        4.930183209448354       11.205375352033814       -0.955262695848042       -0.359005351624743       26.150271272375928
Se         -0.021412332202950        4.928225474616765       11.229600108203053        0.837523087759479       -0.292126814766671       24.721160222929708
Se          4.274698304072472        2.455294652014159       11.227423705409814       -0.932088818485281        0.161033662225641       24.656071431781509
Se          1.407607347370143        2.455649202416730       11.266029162931654        0.030503581528402        0.500550300294490       22.774344465235735
Mo          1.402056720938907        0.802327007372200       10.011714336959198        1.124537518717057        2.130583638445442       -1.543602838570969
Mo          4.258682445951814        0.819487589417424        9.978228450226176        0.012080076487950        0.183987967280367        0.544341091784172
Mo         -0.025202196248470        3.274550441973541        9.986818161670113        1.540767424738406       -0.621232280154893        0.331933680128718
Mo          2.830511175232539        3.282339132137594        9.983306913721943       -0.580707562469622       -2.063244873915961        1.050280683821893
