# total energy = -9516.74000327061 eV 

 CRYSTAL
 PRIMVEC
        8.364863528117699        0.000000000000000        0.000000000000000
       -4.182431764058849        7.244180936938131        0.000000000000000
        0.000000000000000        0.000000000000000       19.999945357962428
 PRIMCOORD
12 1
Se          4.158116778755317        7.215097979423570        8.377489453127039       -0.022490992058146       -0.002733340991474        1.245811366789516
Se         -0.027901838784389        7.222750156579092        8.396424158209287        0.011214128556497       -0.019957682981955        1.206719268425521
Se          6.232397994572067        3.608564484144098        8.433810079261857        0.024359413559890        0.003982383465049        1.055340874213502
Se          2.070931087973739        3.610876532423271        8.385578276158729       -0.020299125634262        0.029863633665757        1.196603258519630
Se          4.159653404185432        7.234776320873467       11.564616219483865        0.003981869244187        0.025861709807955       -1.187323628845632
Se         -0.033194287938629        7.230496856692483       11.586469425451073       -0.013438390894681        0.012793557933848       -1.255327023839130
Se          6.244053595412146        3.601905216289365       11.620953575345739        0.021503173782420       -0.023107542871574       -1.371674636054507
Se          2.059262103352015        3.606318518286799       11.564740019464081       -0.016458410016669       -0.028105769649323       -1.187673556142161
Mo          2.059099824999570        1.187127211642466       10.002845173116770        0.017480423979712       -0.003904993225332        0.058607808515139
Mo          6.251600375287214        1.195569868401395        9.986483500055771       -0.033191413973597       -0.011397962514629        0.125431580851419
Mo         -0.030993492344382        4.805896829290868        9.972868011691054        0.004553939953060        0.034222941022585        0.102612001662513
Mo          4.146474561696882        4.819258862290683        9.968696454249582        0.022785383501589       -0.017516676550476        0.010872428793759
