# total energy = -38122.28271220301 eV 

 CRYSTAL
 PRIMVEC
       26.555490215667398        0.000000000000000        0.000000000000000
       -3.319436276958425        5.749422964633285        0.000000000000000
        0.000000000000000        0.000000000000000       20.000028456517960
 PRIMCOORD
48 1
Mo          1.604796073615169        0.866763233992319       10.000008917160937        0.890125310828391        1.107039097007179        0.000000000000000
Se          1.587330527700324        2.777911409382492        8.330515702733337        0.300538182515336        0.184543325811228       -0.043094022221796
Se          1.587330527700324        2.777911409382492       11.669499476039515        0.300538182515336        0.184543325811228        0.043094022221796
Mo         -0.070071972032082        3.740290341445343       10.000008917160937        1.501562712005654        1.144001549671580        0.000000000000000
Se         -0.062304491143999        5.657272758035898        8.341756641741629        0.223425622063564        0.090543238033525       -0.242471077236494
Se         -0.062304491143999        5.657272758035898       11.658261192580245        0.223425622063564        0.090543238033525        0.242471077236494
Mo          4.909082443405556        0.865573548030657       10.000008917160937        0.239570357354469        0.154840643275249        0.000000000000000
Se          4.916852579842660        2.782558620170234        8.341756641741629       -0.057435384949988        0.161213382416878       -0.088300463744312
Se          4.916852579842660        2.782558620170234       11.658261192580245       -0.057435384949988        0.161213382416878        0.088300463744312
Mo          3.242818376588181        3.754006252141735       10.000008917160937        0.183167527895192       -0.123780417663831        0.000000000000000
Se          3.274366298964394        5.676740587913003        8.350859863787559       -0.240700100588081       -0.125966884768665       -0.364651239578066
Se          3.274366298964394        5.676740587913003       11.649160626083335       -0.240700100588081       -0.125966884768665        0.364651239578066
Mo          8.221972792025818        0.879289458727049       10.000008917160937        0.692970461268430        0.247288555381282        0.000000000000000
Se          8.253520714402031        2.802026450047340        8.350859863787559       -0.154359075438071        0.212611043116770       -0.156839162655055
Se          8.253520714402031        2.802026450047340       11.649160626083335       -0.154359075438071        0.212611043116770        0.156839162655055
Mo          6.565558156529435        3.780014699258960       10.000008917160937        0.323742398908949       -0.280068078444490        0.000000000000000
Se          6.614903568448188        5.707321890445367        8.356088639811023       -0.433869738468252       -0.210173379120894       -0.471935966212740
Se          6.614903568448188        5.707321890445367       11.643929194510848       -0.433869738468252       -0.210173379120894        0.471935966212740
Mo         11.544709916418050        0.905297905844274       10.000008917160937        1.031365069416595        0.353271274793604        0.000000000000000
Se         11.594060639434847        2.832607752579702        8.356088639811023       -0.226438442093485        0.222944311336818       -0.193253970101524
Se         11.594060639434847        2.832607752579702       11.643929194510848       -0.226438442093485        0.222944311336818        0.193253970101524
Mo          9.897523313771611        3.813365739420817       10.000008917160937        0.425904200206862       -0.317654281014386        0.000000000000000
Se          9.955289471637753        5.743198357726733        8.356452450026978       -0.544208165691369       -0.255546685313098       -0.483899057454606
Se          9.955289471637753        5.743198357726733       11.643570695392937       -0.544208165691369       -0.255546685313098        0.483899057454606
Mo         14.876683040307292        0.938651601555152       10.000008917160937        1.172405053199948        0.394632372710769        0.000000000000000
Se         14.934443887075389        2.868481564312047        8.356452450026978       -0.253726086351512        0.192151994794455       -0.191825978768005
Se         14.934443887075389        2.868481564312047       11.643570695392937       -0.253726086351512        0.192151994794455        0.191825978768005
Mo         13.236321198646278        3.847712610465761       10.000008917160937        0.454115128022445       -0.296242895655816        0.000000000000000
Se         13.291540685000738        5.777537262124612        8.351876939062821       -0.543319077821129       -0.248321625092855       -0.396413119555557
Se         13.291540685000738        5.777537262124612       11.648140895259054       -0.543319077821129       -0.248321625092855        0.396413119555557
Mo         18.215475614083918        0.972998472600097       10.000008917160937        1.081050631756763        0.351065010185586        0.000000000000000
Se         18.270695100438374        2.902823124258948        8.351876939062821       -0.235249102341422        0.123491939760300       -0.152597868986035
Se         18.270695100438374        2.902823124258948       11.648140895259054       -0.235249102341422        0.123491939760300        0.152597868986035
Mo         16.578273875758565        3.876517350702695       10.000008917160937        0.392013445861070       -0.221451528174698        0.000000000000000
Se         16.620454616417135        5.803805953045951        8.343235782546641       -0.438804201859125       -0.192700925564542       -0.228865307451261
Se         16.620454616417135        5.803805953045951       11.656779396226209       -0.438804201859125       -0.192700925564542        0.228865307451261
Mo         21.557428291196203        1.001800557288010       10.000008917160937        0.773129266106147        0.215471139550704        0.000000000000000
Se         21.599609031854772        2.929091815180286        8.343235782546641       -0.173779397619332        0.024624751524635       -0.081444356992488
Se         21.599609031854772        2.929091815180286       11.656779396226209       -0.173779397619332        0.024624751524635        0.081444356992488
Mo         19.919097944536691        3.894293595853064       10.000008917160937        0.250193903251064       -0.131020390289069        0.000000000000000
Se         19.940228148101298        5.817001376134115        8.332172765322795       -0.258063539321709       -0.112909017311796       -0.020788406784368
Se         19.940228148101298        5.817001376134115       11.667839757901035       -0.258063539321709       -0.112909017311796        0.020788406784368
Mo         24.898252359974329        1.019579457987399       10.000008917160937        0.073125034778104       -0.094632065216989        0.000000000000000
Se         24.919382563538935        2.942287238268452        8.332172765322795       -0.893217835091908       -0.647968936759385       -0.679951674597066
Se         24.919382563538935        2.942287238268452       11.667839757901035       -0.893217835091908       -0.647968936759385        0.679951674597066
Mo         23.254709170585482        3.897660832012410       10.000008917160937       -0.217556562256173       -0.210479854754591        0.000000000000000
Se         23.250789580229647        5.814614037563728        8.320796393314403       -0.704235754800687       -0.564676469989199       -0.392774749847125
Se         23.250789580229647        5.814614037563728       11.679221441007471       -0.704235754800687       -0.564676469989199        0.392774749847125
