# total energy = -38122.67800344697 eV 

 CRYSTAL
 PRIMVEC
       26.555490215667398        0.000000000000000        0.000000000000000
       -3.319436276958425        5.749422964633285        0.000000000000000
        0.000000000000000        0.000000000000000       20.000028456517960
 PRIMCOORD
48 1
Mo          1.634851577441262        0.943875066480574       10.040418406622118       -0.045529629334225        0.052727692959218       -0.545994826076069
Se          1.613583285327533        2.823382375278779        8.330515702733337        0.103439640139754        0.136769122414773        0.074182272870188
Se          1.656345591221823        2.897450948588319       11.669499476039515       -0.095467931228021       -0.133710279617712        0.064431102665820
Mo         -0.024866561037951        3.818589204346238       10.000008917160937        0.018408849745887        0.013131658150553        0.090373030928233
Se         -0.041705397383706        5.700239541204848        8.292127086077569        0.045953347324437        0.334238932252653        0.577222173467607
Se         -0.007802003025363        5.770024713942600       11.631110859383746       -0.025440820032483       -0.391570444588536        0.683678233183316
Mo          4.954290509948708        0.943875066480574       10.000008917160937        0.000225742958378        0.064293034364398       -1.182011984452551
Se          4.937449018053932        2.825525403339184        8.292127086077569        0.010272333047912        0.099074676353446        0.043524682193644
Se          4.971352412412274        2.895310576076936       11.631110859383746       -0.011394105858165       -0.103068115567026        0.038187069647036
Mo          3.294569715920474        3.818589204346238        9.959602083248777       -0.002722028132512       -0.005909169034619       -0.074534771271026
Se          3.285389482952918        5.709024097368191        8.261043884780129       -0.064160879602887        0.196871513865049        0.454039023334883
Se          3.303975670554863        5.761242813328280       11.600030313635328        0.087787014213696       -0.240842025545968        0.532605543273700
Mo          8.273726786907133        0.943875066480574        9.959602083248777        0.001788717268148        0.034526588441541       -0.841989610166015
Se          8.264543898390555        2.834307303953505        8.261043884780129        0.000287706572238        0.089135558424051        0.019805473606830
Se          8.283130085992500        2.886526019913593       11.600030313635328       -0.003484617670722       -0.093825766905516        0.019144185578416
Mo          6.614008648427920        3.818589204346238        9.926888374852096       -0.000385151425569       -0.003419568731690       -0.038292999144589
Se          6.614252958937905        5.722777185750885        8.243185317610093       -0.104499963557009        0.092047848275468        0.265828788557386
Se          6.613987404035748        5.747489724945585       11.582169090916270        0.124602142601161       -0.109869714907487        0.299646523540787
Mo         11.593160408316535        0.943875066480574        9.926888374852096        0.001960467036025        0.007729253775344       -0.348416772746758
Se         11.593410029924563        2.848060392336199        8.243185317610093       -0.010373891668139        0.062474235175828       -0.005096957183235
Se         11.593139163924363        2.872772931530899       11.582169090916270        0.006354998521894       -0.065491168972644       -0.002141472779417
Mo          9.933444925386345        3.818589204346238        9.908089743328427        0.001931670667759       -0.000058621178258        0.009954544555252
Se          9.943089879432675        5.738880435017665        8.241950487315066       -0.132222638664211       -0.037465617777779        0.013482613888805
Se          9.924023037457825        5.731383820129783       11.580939571719284        0.133831378630691        0.034094900027969        0.024851008703874
Mo         14.912601996373002        0.943875066480574        9.908089743328427        0.003375088627135        0.003158344533841        0.212089880273226
Se         14.922244294870312        2.864166297152001        8.241950487315066       -0.018610938544617        0.023657244972954       -0.027463250682369
Se         14.903182763993506        2.856669682264119       11.580939571719284        0.015314011488492       -0.024977507035904       -0.024513165597601
Mo         13.252881202344769        3.818589204346238        9.906791179856880        0.003369175087223        0.003031074870519        0.057490406582212
Se         13.270110404396695        5.754271997146667        8.257573082208941       -0.136739040494352       -0.171463603967728       -0.262280664610219
Se         13.235872410861635        5.715992258000782       11.596559511064141        0.117553203026121        0.159478144118369       -0.233953265769413
Mo         18.232035617782408        0.943875066480574        9.906791179856880        0.004019407367106        0.023468525916634        0.732285731486493
Se         18.249264819834330        2.879557859281002        8.257573082208941       -0.023434844450179       -0.020545951647978       -0.042738695606217
Se         18.215026826299269        2.841278120135118       11.596559511064141        0.022271419750111        0.019959482754972       -0.043420295358677
Mo         16.572314823754173        3.818589204346238        9.923234339398419        0.002400125872957        0.003783637101921        0.093362711019368
Se         16.593875226260273        5.766020146018078        8.287078887387571       -0.111499280818875       -0.282824302264318       -0.503839771148118
Se         16.550985454012949        5.704244109129371       11.626070627340813        0.084006205326515        0.245425790309019       -0.432888090842869
Mo         21.551469239191810        0.943875066480574        9.923234339398419        0.002573675413851        0.053575643160504        1.122967602425651
Se         21.573029641697911        2.891306008152413        8.287078887387571       -0.021876755238597       -0.059038468486987       -0.045945119790647
Se         21.530139869450586        2.829529971263706       11.626070627340813        0.021591876881100        0.057201414457820       -0.051769442383051
Mo         19.891756411810640        3.818589204346238        9.954290985205644        0.000835351790170        0.001764291777207        0.117433389565297
Se         19.913558469277703        5.771888909355740        8.324854072219358       -0.054724412566008       -0.343087130623509       -0.648036042581864
Se         19.870177420461388        5.698375345791708       11.663840501074555        0.035626249754732        0.282824302264318       -0.540805566248122
Mo         24.870910827248277        0.943875066480574        9.954290985205644        0.000211344774244        0.062580164673381        1.275485252957229
Se         24.892712884715340        2.897174771490076        8.324854072219358       -0.199744722930962       -0.207209667183285       -0.122570713086192
Se         24.849331835899026        2.823661207926044       11.663840501074555        0.172288928451091        0.186257481054399       -0.115226867846848
Mo         23.211190033220042        3.818589204346238        9.994049865156541        0.000370753241436       -0.003053700588443        0.080303815120775
Se         23.229109678017576        5.770762956570596        8.363707409953900        0.076996603647412       -0.319859517180680       -0.415432863685391
Se         23.193490798991302        5.699503954125873       11.702691183260077       -0.037334748568423        0.274009271139055       -0.353011079037478
