# total energy = -38122.16322097608 eV 

 CRYSTAL
 PRIMVEC
       13.277745107833699        0.000000000000000        0.000000000000000
       -6.638872553916849       11.498859207011680        0.000000000000000
        0.000000000000000        0.000000000000000       20.000015178772852
 PRIMCOORD
48 1
Mo          1.634851577441262        0.943875066480574       10.000007589386426       -0.017600237440536       -0.010161518452170        0.000000000000000
Se          1.615088981622762        2.894841871674629        8.330514374958828        0.141380912214798       -0.234698371798318       -0.021210839222425
Se          1.654838567152083        2.825991452192469       11.669498148265003       -0.132554054009711        0.239772189042768        0.021210325001564
Mo         -0.024865233263440        3.818589204346238       10.000007589386426       -0.017566041753219       -0.010155604912258       -0.000005399319050
Se         -0.044629156856451        5.769556009540294        8.330514374958828        0.141374998674886       -0.234686544718494       -0.021219066756216
Se         -0.004879571327129        5.700706917832643       11.669498148265003       -0.132557653555744        0.239778102582680        0.021219066756216
Mo         -1.684584699517163        6.693304669986414       10.000007589386426       -0.017565013311495       -0.010141206728125        0.000000000000000
Se         -1.704347295335663        8.644271475180469        8.330514374958828        0.141374998674886       -0.234687316049787       -0.021219066756216
Se         -1.664597709806341        8.575422383472818       11.669498148265003       -0.132557139334882        0.239777588361818        0.021219066756216
Mo         -3.344301510221865        9.568020135626588       10.000007589386426       -0.017578125943474       -0.010134778967351        0.000005399319050
Se         -3.364065433814875       11.518988268595155        8.330514374958828        0.141371656239284       -0.234681402509875       -0.021210325001564
Se         -3.324315848285554       11.450137849112995       11.669498148265003       -0.132564338426949        0.239788644110349        0.021210839222425
Mo          4.954287854399686        0.943875066480574       10.000007589386426       -0.064623421268174       -0.037343747433506       -0.000003342435602
Se          4.911352937818995        2.934976511812079        8.330514374958828        0.371556197311771       -0.559200532030737       -0.073410941577325
Se          4.997447164872700        2.785856812055020       11.669498148265003       -0.298503924785627        0.601377441345320        0.073410941577325
Mo          3.294569715920474        3.818589204346238       10.000007589386426       -0.064652217636441       -0.037293610899470        0.000003342435602
Se          3.251634799339783        5.809690649677743        8.330514374958828        0.371588079005209       -0.559215187325301       -0.073403999595689
Se          3.337729026393487        5.660572277695195       11.669498148265003       -0.298480527736410        0.601363557382048        0.073397057614054
Mo          1.634851577441262        6.693304669986414       10.000007589386426       -0.064645018544374       -0.037310323077482        0.000004113766895
Se          1.591916660860570        8.684406115317918        8.330514374958828        0.371559025526511       -0.559198732257720       -0.073409913135601
Se          1.678010887914275        8.535286415560858       11.669498148265003       -0.298500839460455        0.601378984007905        0.073409913135601
Mo         -0.024865233263440        9.568020135626588       10.000007589386426       -0.064634219906274       -0.037329092138942       -0.000004113766895
Se         -0.067801477618642       11.559117597634561        8.330514374958828        0.371555683090909       -0.559173535435487       -0.073397057614054
Se          0.018292749435062       11.409997897877503       11.669498148265003       -0.298500325239593        0.601412408363929        0.073403999595689
Mo          8.273725459132622        0.943875066480574       10.000007589386426       -0.095888306782631       -0.055385186373560       -0.000000257110431
Se          8.224060053556769        2.946631716467735        8.330514374958828        0.438191764812592       -0.643280013830074       -0.096161358060304
Se          8.323612603051775        2.774201607399363       11.669498148265003       -0.337998915194927        0.701124461475711        0.096162386502028
Mo          6.614007320653410        3.818589204346238       10.000007589386426       -0.095876736813238       -0.055354590232276        0.000000000000000
Se          6.564341915077557        5.821347182107910        8.330514374958828        0.438192279033454       -0.643277956946626       -0.096162386502028
Se          6.663894464572562        5.648917073039539       11.669498148265003       -0.338000972078374        0.701125232807003        0.096161358060304
Mo          4.954287854399686        6.693304669986414       10.000007589386426       -0.095909389837969       -0.055349190913226        0.000000257110431
Se          4.904623776598345        8.696061319973575        8.330514374958828        0.438196135689918       -0.643279756719643       -0.096155444520392
Se          5.004176326093350        8.523631210905203       11.669498148265003       -0.337995829869755        0.701122147481832        0.096155958741254
Mo          3.294569715920474        9.568020135626588       10.000007589386426       -0.095867223727293       -0.055348933802795        0.000000000000000
Se          3.244905638119132       11.570778113388259        8.330514374958828        0.438191764812592       -0.643274100290162       -0.096155958741254
Se          3.344458187614137       11.398348004319889       11.669498148265003       -0.337998400974065        0.701128832353037        0.096155444520392
Mo         11.593157752767514        0.943875066480574       10.000007589386426       -0.059581742827594       -0.034437885342862        0.000000257110431
Se         11.555778244739940        2.925355457706942        8.330514374958828        0.316228860785176       -0.483486652323356       -0.056563009257761
Se         11.630768293559964        2.795476538385645       11.669498148265003       -0.260613560575912        0.515594345830480        0.056563780589054
Mo          9.933443597611834        3.818589204346238       10.000007589386426       -0.059603597214225       -0.034410888747612        0.000006684871205
Se          9.896061434035239        5.800070923347118        8.330514374958828        0.316215748153197       -0.483486138102494       -0.056563009257761
Se          9.971047499531730        5.670192004025821       11.669498148265003       -0.260603276158674        0.515594088720049        0.056563009257761
Mo          8.273725459132622        6.693304669986414       10.000007589386426       -0.059602568772501       -0.034412945631060       -0.000006684871205
Se          8.236343295556027        8.674786388987293        8.330514374958828        0.316210863055009       -0.483495136967577       -0.056563780589054
Se          8.311329361052518        8.544907469665995       11.669498148265003       -0.260597362618762        0.515605401579011        0.056563009257761
Mo          6.614007320653410        9.568020135626588       10.000007589386426       -0.059615167183618       -0.034380549716760       -0.000000257110431
Se          6.576625157076815       11.549497871303936        8.330514374958828        0.316235545656381       -0.483479710341720       -0.056538583766820
Se          6.651611222573306       11.419617624208128       11.669498148265003       -0.260587849532817        0.515607972683321        0.056538583766820
