# total energy = -38122.0851558344 eV 

 CRYSTAL
 PRIMVEC
       13.277745107833699        0.000000000000000        0.000000000000000
       -6.638872553916849       11.498859207011680        0.000000000000000
        0.000000000000000        0.000000000000000       20.000015178772852
 PRIMCOORD
48 1
Mo          1.634851577441262        0.943875066480574        9.925920427233734       -0.223234846123796        0.148824259190921        1.564714947387908
Se          1.655457310074109        2.854399187850679        8.245868749896387       -0.141629023780669        0.049730042444723       -0.027279930945098
Se          1.614470238700737        2.866434136016419       11.584857834300609        0.135700828574159       -0.061703675214258       -0.010176430857166
Mo         -0.024865233263440        3.818589204346238        9.907504194769171        0.291294034080810        0.175486096660006        1.457017815621984
Se          0.005288525876450        5.759892466650812        8.274900539574665       -0.105364368825877        0.046315358811221       -0.020335892425888
Se         -0.054797254060030        5.710370460722125       11.613888296204374        0.123628465399137       -0.035485867459431       -0.022737046740569
Mo         -1.684584699517163        6.693304669986414        9.939231366704339        0.157270593958196        0.094233544049010        1.269329515019324
Se         -1.661164084921455        8.651964600695948        8.334079449520280       -0.076901729898390       -0.088082176988431       -0.096880495935683
Se         -1.707779592446038        8.567727930182830       11.673068533924500        0.097346380036572        0.084948772166393       -0.111069135067888
Mo         -3.344301510221865        9.568020135626588       10.003907263124598        0.010709163670103       -0.005910968807636        0.557426727167584
Se         -3.340251797963976       11.521208307577185        8.391323792003684       -0.142128589348013       -0.821606409420831       -1.603602128738432
Se         -3.348128156361943       11.447917810130964       11.730308893084372        0.071253785061620        0.526190638021394       -1.114868623850595
Mo          4.954287854399686        0.943875066480574        9.907504194769171       -0.077910374119023        0.409460445484757        3.085281205566246
Se          4.984442941314088        2.885178328785148        8.274900539574665       -0.024357099566012       -0.001087834233367       -0.047682929193466
Se          4.924357161377608        2.835656322856461       11.613888296204374        0.029167121508302       -0.014918832756115       -0.029591096608945
Mo          3.294569715920474        3.818589204346238        9.939231366704339        0.008234989993031        0.009222551158326        0.236267259648001
Se          3.317989002741671        5.777250462830283        8.334079449520280        0.009650382915434        0.010707363897086       -0.005360495374963
Se          3.271374822991599        5.693013792317165       11.673068533924500       -0.012454943496281       -0.012321246072185       -0.024861036010682
Mo          1.634851577441262        6.693304669986414       10.003907263124598        0.016075058364116        0.005527102934222        0.029460741620452
Se          1.638902617473661        8.646490186387988        8.391323792003684        0.061525240575176       -0.058234998390256       -0.062629015655262
Se          1.631026259075695        8.573202344490790       11.730308893084372       -0.071091034158826        0.045070172994110       -0.073361319264151
Mo         -0.024865233263440        9.568020135626588       10.066466686974666       -0.005732277058123       -0.014016889364328        0.060369786298468
Se         -0.042320156982198       11.495867731038883        8.415607460031399        0.409886220358417       -0.676545475607785       -1.580221277478754
Se         -0.007187243426870       11.473258386669263       11.754597872210130       -0.201072441196409        0.348626060637555       -1.068142916791571
Mo          8.273725459132622        0.943875066480574        9.939231366704339       -0.002635381917280        0.237112381634547        2.406310921484132
Se          8.297143418179308        2.902534997190108        8.334079449520280        0.008141916017025       -0.091987684434625       -0.074250407134390
Se          8.250529238429236        2.818299654451501       11.673068533924500        0.001134628331801        0.082311076255234       -0.083541092556919
Mo          6.614007320653410        3.818589204346238       10.003907263124598        0.004550854627889        0.006989547065489        0.095015159759110
Se          6.618057032911298        5.771776048522324        8.391323792003684        0.048656349285058       -0.029288991852574       -0.031222205182919
Se          6.610180674513331        5.698488206625124       11.730308893084372       -0.055578790528068        0.015628971766411       -0.040470724494771
Mo          4.954287854399686        6.693304669986414       10.066466686974666       -0.003494387867098       -0.007642864670543       -0.137132933674574
Se          4.936832930680928        8.621153593173219        8.415607460031399        0.075973047021783       -0.053558673872061       -0.043616213507064
Se          4.971967172010767        8.598540265480068       11.754597872210130       -0.078667307227752        0.053662289375736       -0.047283122473332
Mo          3.294569715920474        9.568020135626588       10.092996949474628       -0.004513316504969       -0.008082780617906       -0.095533751498345
Se          3.265132955016406       11.464398147358807        8.393764241554504        0.523581224257640       -0.215755246576909       -0.717617838510989
Se          3.324230870716864       11.504718675927766       11.732748014860681       -0.352313024217438        0.096189897318140       -0.533072455816313
Mo         11.593157752767514        0.943875066480574       10.003907263124598        0.014673806515416        0.008540437185004        0.551932277258094
Se         11.597208792799915        2.897060582882149        8.391323792003684       -0.678981082720214       -0.507289164689799       -0.950745008465746
Se         11.589337745499989        2.823772740984949       11.730308893084372        0.360258250754783        0.350204718683613       -0.694336231877659
Mo          9.933443597611834        3.818589204346238       10.066466686974666       -0.008069667985927        0.003229564123215       -0.004991284796113
Se          9.915988673893075        5.746438127533044        8.415607460031399       -0.359940719372555       -0.239532562121118       -0.651689838916154
Se          9.951121587448403        5.723824799839893       11.754597872210130        0.182082778986997        0.144913095315246       -0.517088671655186
Mo          8.273725459132622        6.693304669986414       10.092996949474628       -0.007038655157801        0.001327204044585       -0.150793982202461
Se          8.244287370454042        8.589686665042166        8.393764241554504        0.097787581536089        0.013549462600853       -0.112768120795633
Se          8.303385286154500        8.630005865836612       11.732748014860681       -0.107395541230415       -0.011301288992590       -0.115003953103211
Mo          6.614007320653410        9.568020135626588       10.069127547094276        0.007230459539293        0.006824996389678       -0.082309533592649
Se          6.588604338713101       11.443868097873075        8.337636557434669       -0.023363110639943        0.019746852428572       -0.167280931476966
Se          6.639632040937017       11.525258019835075       11.676617675191824        0.018055065792894       -0.040219527603729       -0.163576998608640
