# total energy = -38121.39971627634 eV 

 CRYSTAL
 PRIMVEC
       13.277745107833699        0.000000000000000        0.000000000000000
       -6.638872553916849       11.498859207011680        0.000000000000000
        0.000000000000000        0.000000000000000       20.000015178772852
 PRIMCOORD
48 1
Mo          1.553733849253973        0.897041803936223       10.000007589386426        1.573401680408125        0.908404062696215        0.000000000000000
Se          1.683120164231769        2.888220260189353        8.327368877142781       -1.227481192835501       -0.708684279477056       -0.168724092325911
Se          1.683120164231769        2.888220260189353       11.672647629404581       -1.227481192835501       -0.708684279477056        0.168724092325911
Mo         -0.105984289225239        3.771755941801887       10.000007589386426        1.573443846518802        0.908413575782160        0.000000000000000
Se          0.023402025752557        5.762935725829528        8.327368877142781       -1.227480421504208       -0.708688136133520       -0.168732062749271
Se          0.023402025752557        5.762935725829528       11.672647629404581       -1.227480421504208       -0.708688136133520        0.168732062749271
Mo         -1.765702427704452        6.646470079667552       10.000007589386426        1.573433562101564        0.908422317536813        0.000000000000000
Se         -1.636316112726655        8.637649863695191        8.327368877142781       -1.227482221277225       -0.708685307918779       -0.168732062749271
Se         -1.636316112726655        8.637649863695191       11.672647629404581       -1.227482221277225       -0.708685307918779        0.168732062749271
Mo         -3.425420566183664        9.521185545307727       10.000007589386426        1.573430990997254        0.908435687279222        0.000000000000000
Se         -3.296034251205868       11.512367984884389        8.327368877142781       -1.227479135952053       -0.708687621912658       -0.168724092325911
Se         -3.296034251205868       11.512367984884389       11.672647629404581       -1.227479135952053       -0.708687621912658        0.168724092325911
Mo          4.870835898622441        0.895694112807778       10.000007589386426        2.249241130772510        1.298593310049665        0.000000000000000
Se          4.988177971012921        2.879919013947935        8.319272108176024       -0.851131942869883       -0.491401282719418        0.126069728941047
Se          4.988177971012921        2.879919013947935       11.680737759498786       -0.851131942869883       -0.491401282719418       -0.126069728941047
Mo          3.211117760143228        3.770408250673443       10.000007589386426        2.249235474343029        1.298603337356472        0.000000000000000
Se          3.328459832533709        5.754634479588111        8.319272108176024       -0.851136313747209       -0.491397168952522        0.126077185143545
Se          3.328459832533709        5.754634479588111       11.680737759498786       -0.851136313747209       -0.491397168952522       -0.126077185143545
Mo          1.551399621664016        6.645123716313617       10.000007589386426        2.249270184251208        1.298588682061908        0.000000000000000
Se          1.668741694054496        8.629348617453774        8.319272108176024       -0.851135028195054       -0.491403082492434        0.126065872284583
Se          1.668741694054496        8.629348617453774       11.680737759498786       -0.851135028195054       -0.491403082492434       -0.126065872284583
Mo         -0.108318516815197        9.519837854179281       10.000007589386426        2.249246015870699        1.298630848172584        0.000000000000000
Se          0.009024883349795       11.504068066417481        8.319272108176024       -0.851130400207297       -0.491407196259329        0.126077185143545
Se          0.009024883349795       11.504068066417481       11.680737759498786       -0.851130400207297       -0.491407196259329       -0.126077185143545
Mo          8.219815158445796        0.912749376398791       10.000007589386426        1.275682970878632        0.736490515474317        0.000000000000000
Se          8.280335120647301        2.864168952701023        8.315469361977140       -0.296833221205287       -0.171385956617580        0.379902001900543
Se          8.280335120647301        2.864168952701023       11.684548472344733       -0.296833221205287       -0.171385956617580       -0.379902001900543
Mo          6.560097019966583        3.787464842038965       10.000007589386426        1.275672686461394        0.736510055867070        0.000000000000000
Se          6.620616982168088        5.738883090566687        8.315469361977140       -0.296841191628646       -0.171372072654308        0.379902001900543
Se          6.620616982168088        5.738883090566687       11.684548472344733       -0.296841191628646       -0.171372072654308       -0.379902001900543
Mo          4.900378881487370        6.662180307679140       10.000007589386426        1.275661116492001        0.736528567818099        0.000000000000000
Se          4.960898843688876        8.613598556206863        8.315469361977140       -0.296799796849263       -0.171391870157492        0.379914343201229
Se          4.960898843688876        8.613598556206863       11.684548472344733       -0.296799796849263       -0.171391870157492       -0.379914343201229
Mo          3.240660743008158        9.536893117770294       10.000007589386426        1.275665744479759        0.736505942100175        0.000000000000000
Se          3.301180705209664       11.488308710748994        8.315469361977140       -0.296829621659253       -0.171340190960870        0.379914343201229
Se          3.301180705209664       11.488308710748994       11.684548472344733       -0.296829621659253       -0.171340190960870       -0.379914343201229
Mo         11.589388200931399        0.941694860733868       10.000007589386426       -0.237775212325547       -0.137302112338141        0.000000000000000
Se         11.570008004172006        2.846984894982465        8.317413223860926       -0.054852453560623       -0.031673948210105       -0.101677405245995
Se         11.570008004172006        2.846984894982465       11.682597971588393       -0.054852453560623       -0.031673948210105        0.101677405245995
Mo          9.929667406903166        3.816410326374043       10.000007589386426       -0.237744873294694       -0.137268430871686        0.000000000000000
Se          9.910289865692793        5.721700360622640        8.317413223860926       -0.054854253333639       -0.031670091553641       -0.101677148135564
Se          9.910289865692793        5.721700360622640       11.682597971588393       -0.054854253333639       -0.031670091553641        0.101677148135564
Mo          8.269949268423954        6.691124464239707       10.000007589386426       -0.237750529724175       -0.137258917785741        0.000000000000000
Se          8.250571727213581        8.596414498488304        8.317413223860926       -0.054856567327518       -0.031666492007607       -0.101677405245995
Se          8.250571727213581        8.596414498488304       11.682597971588393       -0.054856567327518       -0.031666492007607        0.101677405245995
Mo          6.610231129944741        9.565838602105371       10.000007589386426       -0.237794752718299       -0.137268173761255        0.000000000000000
Se          6.590854916508880       11.471128636353969        8.317413223860926       -0.054836255603473       -0.031659807136403       -0.101664549724447
Se          6.590854916508880       11.471128636353969       11.682597971588393       -0.054836255603473       -0.031659807136403        0.101664549724447
