# total energy = -9526.440079718306 eV 

 CRYSTAL
 PRIMVEC
        7.302698953924899        0.000000000000000        0.000000000000000
       -3.651349476962450        6.324319861572811        0.000000000000000
        0.000000000000000        0.000000000000000       20.000054981792154
 PRIMCOORD
12 1
Se          3.655943604874364        6.313099994900001        8.632677441462134        0.079863384952551       -0.140907314800981       -3.676107863266930
Se          0.055452314236733        6.278455260792686        8.423976529137494       -0.460480925182439        0.359899581703602       -1.403713423966136
Se          5.486343919848673        3.157670231469532        8.552470438311385       -1.117336626877324       -0.019748395091158       -2.369398605353767
Se          1.776550943157963        3.146223981129151        8.565946838960958        0.193608268275379        0.256481281729617       -2.692949971212517
Se          3.634724152523944        6.289840898731749       11.346721126068950       -0.007932371015798        0.711429704658784        3.253312385280736
Se         -0.026694285756177        6.354880196155197       11.558077299733235        0.214169389438783       -0.254196341329727        0.044882739489944
Se          5.386705165051427        3.161274843673190       11.623760695204417        0.359655069683765       -0.105647190299927       -0.130821386815511
Se          1.747540971563496        3.109164244477773       11.343070506861883       -0.291311517590115        0.548914572129985        2.716972570107857
Mo          1.873379619397739        1.034652229951243        9.966835263610697        0.107232790327621       -0.543453803686949        0.157463683891843
Mo          5.439784102128134        1.047380103958039        9.916376534918658       -0.339128658428539        0.276489101245608        1.826312726693513
Mo         -0.121959454149918        4.245260456407673        9.896039248601872        0.970301856285844        0.047200847135427        2.170027978099843
Mo          3.625045885600308        4.216545513850944       10.055314033866557        0.291359597240704       -1.136462557615142        0.104019167051125
