# total energy = -9529.404765680689 eV 

 CRYSTAL
 PRIMVEC
        6.671972590841800        0.000000000000000        0.000000000000000
       -3.335986295420900        5.778095062983770        0.000000000000000
        0.000000000000000        0.000000000000000       19.999938398170332
 PRIMCOORD
12 1
Se          3.291378153875791        5.712284726939483        8.240805547512640        0.082347585936430        0.678538595668542        1.159101131060656
Se         -0.039253216343700        5.768539463839167        8.117480138946261        0.187327831778462        0.220290674578940        2.314735127959895
Se          5.020614672392096        2.906810324120483        8.127495437002374       -0.103853073712729       -0.083347231291980        2.202688459033519
Se          1.582298998950937        2.906721586885025        8.408743100807683        0.476214540894248        0.312371947210432       -0.521511742398890
Se          3.323972741573830        5.708599129280302       11.573508565221587        0.601905031949638        0.823874637642708        1.248130759987153
Se          0.046129351295821        5.748360082738165       11.610714153177158       -0.835216292972958        0.867924596446792        1.095997489549852
Se          5.039356910597030        2.845537596635228       11.576141992803192       -0.590684989853229        0.888946202392035        2.061247897198740
Se          1.692732154880032        2.887449594056378       11.738725955291343       -0.030069322010520       -0.158966494360770       -0.565297905900815
Mo          1.657580200087923        0.993149140839906        9.940978286225979        0.161980085721984       -1.112885788207076        0.082216202506212
Mo          5.008098719008935        0.998380634548385       10.084269572770452       -0.085547582360085       -1.220538696978877       -4.603541954510217
Mo         -0.012790838653903        3.869291742946585       10.081956399873208        0.273785070843263       -0.206929416813545       -3.020402730750566
Mo          3.347700944895900        3.856091912372863        9.988067067180365       -0.138188629104071       -1.009279283397633       -1.453362990845970
