# total energy = -38121.66660932314 eV 

 CRYSTAL
 PRIMVEC
       13.277745107833699        0.000000000000000        0.000000000000000
       -6.638872553916849       11.498859207011680        0.000000000000000
        0.000000000000000        0.000000000000000       20.000015178772852
 PRIMCOORD
48 1
Mo          1.686430306087152        0.995554705989284       10.000007589386426       -1.280080587689672       -0.829828286781883        0.000000000000000
Se          1.585397288012624        2.901045234189009        8.298160493454567        0.267795426243755       -0.272893154758283        0.187690357486107
Se          1.585397288012624        2.901045234189009       11.701858668641815        0.267795426243755       -0.272893154758283       -0.187690357486107
Mo         -0.038855993283565        3.861856064554625       10.000007589386426        0.455962980689713        0.016898068853600        0.000000000000000
Se         -0.046717746161913        5.801831552348416        8.351066996611241        0.125546252103624       -0.308747204354841       -0.183199152478200
Se         -0.046717746161913        5.801831552348416       11.648948182161609        0.125546252103624       -0.308747204354841        0.183199152478200
Mo         -1.751019897164209        6.687579306295915       10.000007589386426        1.710937249017573        0.716623335364058        0.000000000000000
Se         -1.658233686576157        8.640059774432265        8.384698197194874       -0.138702335745118       -0.113852098372536       -0.431729037020128
Se         -1.658233686576157        8.640059774432265       11.615318309352489       -0.138702335745118       -0.113852098372536        0.431729037020128
Mo         -3.400872671028301        9.518672068158814       10.000007589386426        1.132595359623161        0.805839883573859        0.000000000000000
Se         -3.294358599773259       11.449947977357951        8.367508828378272       -0.983560012768426       -0.020499414659975       -0.828619353535536
Se         -3.294358599773259       11.449947977357951       11.632507678169091       -0.983560012768426       -0.020499414659975        0.828619353535536
Mo          4.885507806966597        0.907714455453900       10.000007589386426        2.282878117122951        0.244204001541125        0.000000000000000
Se          5.000252752413985        2.850677435896953        8.380393552230915       -0.301321340888023        0.031955741242431       -0.366890157210815
Se          5.000252752413985        2.850677435896953       11.619617643218405       -0.301321340888023        0.031955741242431        0.366890157210815
Mo          3.273070391041870        3.764329698963076       10.000007589386426        0.056732959252621        0.631259586962105        0.000000000000000
Se          3.335568737264443        5.673804878469662        8.337275402767736       -0.180912669415724        0.228729296033286       -0.027736559070473
Se          3.335568737264443        5.673804878469662       11.662738448230606       -0.180912669415724        0.228729296033286        0.027736559070473
Mo          1.680796558837898        6.671837211696068       10.000007589386426       -0.460668101576174        0.294938831550016        0.000000000000000
Se          1.632535938694455        8.554451512849505        8.287815802241056        0.060761108374380        0.269226502902445        0.250338399313260
Se          1.632535938694455        8.554451512849505       11.712198048757287        0.060761108374380        0.269226502902445       -0.250338399313260
Mo          0.045432460435475        9.599479097110580       10.000007589386426       -0.468486315560628       -0.508525865862689        0.000000000000000
Se         -0.068218398815028       11.487057947159837        8.278403208734112        0.538243203693232        0.163155851722737        0.780415261498526
Se         -0.068218398815028       11.487057947159837       11.721607986715208        0.538243203693232        0.163155851722737       -0.780415261498526
Mo          8.342484262173539        0.955462554636181       10.000007589386426       -2.278826828062406        0.203251709209177        0.000000000000000
Se          8.243181334286561        2.836827419974972        8.275600276741848        0.195977026675760        0.154328993517650        0.347183414009471
Se          8.243181334286561        2.836827419974972       11.724418885354536        0.195977026675760        0.154328993517650       -0.347183414009471
Mo          6.665615260338537        3.870256893884351       10.000007589386426       -0.451218779017746       -0.552318200014956        0.000000000000000
Se          6.564549047901240        5.775727505466415        8.298131282415330        0.256703939362823       -0.122084774371688        0.208745130676943
Se          6.564549047901240        5.775727505466415       11.701887879681054        0.256703939362823       -0.122084774371688       -0.208745130676943
Mo          4.940342238712928        6.736591446812462       10.000007589386426        0.149921606510234       -0.478810070694730        0.000000000000000
Se          4.932408786010998        8.676551001312124        8.351035130022984        0.073110122373109       -0.294346963337960       -0.129733809692575
Se          4.932408786010998        8.676551001312124       11.648978720975357        0.073110122373109       -0.294346963337960        0.129733809692575
Mo          3.228150451567557        9.562327966298861       10.000007589386426        0.587027336862475        0.303150167383399        0.000000000000000
Se          3.320894173371265       11.514808434435208        8.384691558322320       -0.315910815182085       -0.453383134625518       -1.148773776380520
Se          3.320894173371265       11.514808434435208       11.615327603774064       -0.315910815182085       -0.453383134625518        1.148773776380520
Mo         11.541638773974610        0.959763216276608       10.000007589386426        2.093944116482318       -0.160690419800318        0.000000000000000
Se         11.601058011106675        2.911427103088824        8.376710305738001       -0.363201136747484       -0.354715978305135       -0.577277709320693
Se         11.601058011106675        2.911427103088824       11.623308856358383       -0.363201136747484       -0.354715978305135        0.577277709320693
Mo          9.864651600208147        3.782455148809780       10.000007589386426        0.663899499061305        0.451544023712903        0.000000000000000
Se          9.979393890106515        5.725434062546962        8.380409485525043       -0.945637766865273       -0.401974675287527       -0.981480760713300
Se          9.979393890106515        5.725434062546962       11.619608348796829       -0.945637766865273       -0.401974675287527        0.981480760713300
Mo          8.252182317695160        6.639038525730697       10.000007589386426        0.156943292379592        0.530852307245024        0.000000000000000
Se          8.314740413770719        8.548537605178478        8.337309924905016       -0.521589903969900       -0.035316431685433       -0.406593407069187
Se          8.314740413770719        8.548537605178478       11.662707909416858       -0.521589903969900       -0.035316431685433        0.406593407069187
Mo          6.659916452138255        9.546518155198964       10.000007589386426       -0.362373241159812        0.062243092898400        0.000000000000000
Se          6.611722220720351       11.429137767450445        8.287838374407738        0.238104827898030        0.665101747436447        0.853138689783480
Se          6.611722220720351       11.429137767450445       11.712178132139625        0.238104827898030        0.665101747436447       -0.853138689783480
