# total energy = -9520.462648522318 eV 

 CRYSTAL
 PRIMVEC
        8.099322384569499        0.000000000000000        0.000000000000000
       -4.049661192284749        7.014215668096800        0.000000000000000
        0.000000000000000        0.000000000000000       19.999964538468078
 PRIMCOORD
12 1
Se          4.027624555940813        6.995377454162530        8.508372992076513        0.018083605050730        0.022372978370338        0.170123030180733
Se         -0.023374644401868        6.989043784057797        8.530036249658520       -0.067352134271890        0.034009539364893       -0.034912768308835
Se          6.062526659468399        3.485792847328929        8.523128337596720       -0.026910463255817        0.030107374354301        0.065154611418525
Se          1.981183347811930        3.494003940362405        8.521716625705091       -0.008352232349546       -0.024047281496712        0.179089242239397
Se          4.026645347864518        7.005893614346655       11.483603184723664       -0.065283937965295       -0.030547290301664       -0.066707815531919
Se         -0.025929980614199        6.983639916162812       11.483936876805908        0.028971974691208        0.046689454488259       -0.015741071914307
Se          6.040195207789664        3.496296858529477       11.470385900524287       -0.080021764978018       -0.024926599170575        0.071013901029539
Se          2.006197295064434        3.496788487398220       11.534861366298889        0.018762633698880        0.028199872067052       -0.369662321877362
Mo          2.007349018707520        1.157013310535145        9.971085506830370       -0.055467718821896       -0.000143210510041       -0.155164345307820
Mo          6.040972742738583        1.144422913888332       10.034161409696921        0.058637376214699        0.003580519861468        0.091300685363116
Mo         -0.038635387638873        4.667501801746864        9.989441811082759        0.111382038462359       -0.053548646565254       -0.098539115325768
Mo          3.999976709048847        4.669025284287402       10.038317981944683        0.067550880635018       -0.031746710462065        0.164045968034700
