# total energy = -38121.77662227656 eV 

 CRYSTAL
 PRIMVEC
       13.277745107833699        0.000000000000000        0.000000000000000
       -6.638872553916849       11.498859207011680        0.000000000000000
        0.000000000000000        0.000000000000000       20.000015178772852
 PRIMCOORD
48 1
Mo          1.627037624445301        0.957411727618011       10.000007589386426        0.294400699418029       -0.538929945654311        0.000000000000000
Se          1.643083779408118        2.846352874315332        8.330514374958828       -0.095453275933456        0.121757215682653       -0.019457860304180
Se          1.643083779408118        2.846352874315332       11.669498148265003       -0.095453275933456        0.121757215682653        0.019457860304180
Mo         -0.032680514033911        3.832125865483675       10.000007589386426        0.294364703957696       -0.538905777273801        0.000000000000000
Se         -0.016634359071094        5.721068339955506        8.330514374958828       -0.095448390835268        0.121755158799205       -0.019454260758147
Se         -0.016634359071094        5.721068339955506       11.669498148265003       -0.095448390835268        0.121755158799205        0.019454260758147
Mo         -1.692398652513123        6.706841331123850       10.000007589386426        0.294394014546825       -0.538902949059061        0.000000000000000
Se         -1.676352497550306        8.595782477821171        8.330514374958828       -0.095455332816904        0.121768785652046       -0.019456317641594
Se         -1.676352497550306        8.595782477821171       11.669498148265003       -0.095455332816904        0.121768785652046        0.019456317641594
Mo         -3.352116790992336        9.581555468989514       10.000007589386426        0.294395300098979       -0.538891121979237        0.000000000000000
Se         -3.336070636029519       11.470497943461346        8.330514374958828       -0.095450190608285        0.121783955167472       -0.019438834132289
Se         -3.336070636029519       11.470497943461346       11.669498148265003       -0.095450190608285        0.121783955167472        0.019438834132289
Mo          4.998836017010979        0.866716761884442       10.000007589386426       -1.292068875753772        1.963266711508142        0.000000000000000
Se          4.932051614667597        2.899126600020927        8.330514374958828        0.514887292145356       -0.774792770594421       -0.172197654248102
Se          4.932051614667597        2.899126600020927       11.669498148265003        0.514887292145356       -0.774792770594421        0.172197654248102
Mo          3.339117878531766        3.741432227524617       10.000007589386426       -1.292083788158767        1.963331760447173        0.000000000000000
Se          3.272333476188384        5.773840737886592        8.330514374958828        0.514884463930616       -0.774779400852011       -0.172193283370776
Se          3.272333476188384        5.773840737886592       11.669498148265003        0.514884463930616       -0.774779400852011        0.172193283370776
Mo          1.679399740052554        6.616146365390281       10.000007589386426       -1.292082759717044        1.963329189342864        0.000000000000000
Se          1.612615337709172        8.648556203526768        8.330514374958828        0.514885235261909       -0.774780172183304       -0.172193283370776
Se          1.612615337709172        8.648556203526768       11.669498148265003        0.514885235261909       -0.774780172183304        0.172193283370776
Mo          0.019681601573342        9.490861831030456       10.000007589386426       -1.292081988385751        1.963309391839680        0.000000000000000
Se         -0.047102800770040       11.523267685843409        8.330514374958828        0.514882149936737       -0.774725407661511       -0.172168086548542
Se         -0.047102800770040       11.523267685843409       11.669498148265003        0.514882149936737       -0.774725407661511        0.172168086548542
Mo          8.229171985423285        1.021043993272793       10.000007589386426        1.013313603169735       -1.868979688489494        0.000000000000000
Se          8.291990325302958        2.828974961518199        8.330514374958828       -0.429589621124158        0.879671457816226       -0.148910648295722
Se          8.291990325302958        2.828974961518199       11.669498148265003       -0.429589621124158        0.879671457816226        0.148910648295722
Mo          6.569453846944073        3.895758131138457       10.000007589386426        1.013328001353868       -1.868932380170198        0.000000000000000
Se          6.632272186823745        5.703689099383863        8.330514374958828       -0.429586021578125        0.879692283761133       -0.148913476510462
Se          6.632272186823745        5.703689099383863       11.669498148265003       -0.429586021578125        0.879692283761133        0.148913476510462
Mo          4.909735708464861        6.770473596778633       10.000007589386426        1.013326458691282       -1.868933922832784        0.000000000000000
Se          4.972554048344533        8.578404565024037        8.330514374958828       -0.429582679142523        0.879694083534149       -0.148913219400031
Se          4.972554048344533        8.578404565024037       11.669498148265003       -0.429582679142523        0.879694083534149        0.148913219400031
Mo          3.250017569985649        9.645189062418808       10.000007589386426        1.013331343789470       -1.868935979716231        0.000000000000000
Se          3.312835909865321       11.453118702889702        8.330514374958828       -0.429588849792866        0.879721851460692       -0.148908591412274
Se          3.312835909865321       11.453118702889702       11.669498148265003       -0.429588849792866        0.879721851460692        0.148908591412274
Mo         11.600987639057603        0.930315833176454       10.000007589386426       -0.106443718415023        0.202403501897459        0.000000000000000
Se         11.594278394454614        2.858669310677358        8.330514374958828        0.055589589166168       -0.105644104974755       -0.002556963235839
Se         11.594278394454614        2.858669310677358       11.669498148265003        0.055589589166168       -0.105644104974755        0.002556963235839
Mo          9.941272156127413        3.805031298816629       10.000007589386426       -0.106477914102340        0.202456980867097        0.000000000000000
Se          9.934562911524424        5.733383448543023        8.330514374958828        0.055561307018763       -0.105641533870446       -0.002556963235839
Se          9.934562911524424        5.733383448543023       11.669498148265003        0.055561307018763       -0.105641533870446        0.002556963235839
Mo          8.281554017648201        6.679745436682293       10.000007589386426       -0.106458630820018        0.202446696449859        0.000000000000000
Se          8.274844773045212        8.608098914183199        8.330514374958828        0.055560021466609       -0.105637934324413       -0.002556191904546
Se          8.274844773045212        8.608098914183199       11.669498148265003        0.055560021466609       -0.105637934324413        0.002556191904546
Mo          6.621835879168988        9.554460902322470       10.000007589386426       -0.106459145040880        0.202483463241486        0.000000000000000
Se          6.615126634565999       11.482818363146905        8.330514374958828        0.055555393478851       -0.105651304066822       -0.002535365959639
Se          6.615126634565999       11.482818363146905       11.669498148265003        0.055555393478851       -0.105651304066822        0.002535365959639
