# total energy = -38122.276323239304 eV 

 CRYSTAL
 PRIMVEC
       13.277745107833699        0.000000000000000        0.000000000000000
       -6.638872553916849       11.498859207011680        0.000000000000000
        0.000000000000000        0.000000000000000       20.000015178772852
 PRIMCOORD
48 1
Mo          1.634851577441262        0.943875066480574        9.923630016202633       -0.248980084906529        0.188942485284854        1.420351811284472
Se          1.662280743285024        2.899053572422834        8.312819124053616       -0.097132207047587       -0.036009087186423       -0.031061511163572
Se          1.607646805489821        2.821781079218775       11.651808208457837        0.108784708888861        0.040327256874298       -0.041234085364274
Mo         -0.024865233263440        3.818589204346238        9.980668553636866        0.021590334218514        0.033734174093341        0.719170271293090
Se         -0.013515416745264        5.776221437584426        8.374604455363899       -0.037408025041245       -0.094967851439815       -0.063208285456202
Se         -0.035993311438316        5.694041489788511       11.713588228670076        0.047478783511288        0.084823045165657       -0.074345537993843
Mo         -1.684584699517163        6.693304669986414       10.048187215284711        0.046974847066618        0.023483181211198       -0.289313769541601
Se         -1.695404734005537        8.631115885327628        8.412489845480081        0.046713108647907       -0.130349846285141       -0.076705040418710
Se         -1.673540271136467        8.588576645551150       11.751478929884302       -0.046701795788945        0.124608827472365       -0.069274548964135
Mo         -3.344301510221865        9.568020135626588       10.089596518952511        0.250045293421972        0.125717230540209       -1.093725918892372
Se         -3.371366865849673       11.474478611444674        8.405939933818386        0.580309041301643       -0.434779909393830       -1.001685783929833
Se         -3.317013088476245       11.494638211841899       11.744927690448097       -0.326602495342883        0.224006691637520       -0.745077489647324
Mo          4.954287854399686        0.943875066480574        9.980668553636866        0.001265497541156        0.053236257391645        1.191615830379981
Se          4.965638998692373        2.901505971944251        8.374604455363899        0.039567752661260       -0.117020984434046       -0.062394016721370
Se          4.943161103999321        2.819327351922847       11.713588228670076       -0.038701290508944        0.117674559149532       -0.073384459202937
Mo          3.294569715920474        3.818589204346238       10.048187215284711        0.002205236166294       -0.009145675139470       -0.011928895554549
Se          3.283749681432100        5.756401747461963        8.412489845480081        0.074831990929209       -0.041450572347137       -0.036692229601468
Se          3.305612816526659        5.713862507685485       11.751478929884302       -0.081590395717270        0.032771295529417       -0.040691325244529
Mo          1.634851577441262        6.693304669986414       10.089596518952511        0.001501782027203        0.005849776525069       -0.125638040527475
Se          1.607787549587964        8.599767129128033        8.405939933818386        0.073629228333205       -0.025203249994282       -0.015532298244372
Se          1.662139999186881        8.619926729525256       11.744927690448097       -0.067065970362238        0.035348056268440       -0.019684374593851
Mo         -0.024865233263440        9.568020135626588       10.082437158790368        0.011896499640249        0.007290366269705       -0.135373526995554
Se         -0.053444251833541       11.448597630680485        8.358505189420651        0.398749482041638        0.121407288386124        0.046580696775965
Se          0.003935523649962       11.520528487027663       11.697488962726828       -0.424136565994052       -0.170137428364866        0.115727976076778
Mo          8.273725459132622        0.943875066480574       10.048187215284711       -0.043746311385127        0.068801465771179       -1.039873367797730
Se          8.262905424644249        2.881686281821788        8.412489845480081        0.052783228812304       -0.110201387363418       -0.046071361012245
Se          8.284767231964295        2.839147042045310       11.751478929884302       -0.057832620565812        0.107403511653775       -0.043810846103296
Mo          6.614007320653410        3.818589204346238       10.089596518952511        0.000800127661129        0.013690359117016       -0.158727381659983
Se          6.586941965025601        5.725051663487857        8.405939933818386        0.070839323046922       -0.031856753726513       -0.017114555836464
Se          6.641294414624519        5.745211263885080       11.744927690448097       -0.066157856320108        0.040932751939195       -0.023460041272412
Mo          4.954287854399686        6.693304669986414       10.082437158790368        0.006250611686927        0.007170295698450       -0.138868171973083
Se          4.925710163604095        8.573880837265799        8.358505189420651        0.027832975482081        0.003621400419989        0.033017607322272
Se          4.983089939087598        8.645811693612979       11.697488962726828       -0.020353375935193        0.001413078928524        0.013350202016864
Mo          3.294569715920474        9.568020135626588       10.030596858565852        0.010456681226906        0.004850902500812       -0.135274025258775
Se          3.280030585027396       11.442208379734597        8.295896637913682        0.103367649219087        0.407280663251128        0.853380373588577
Se          3.309333240705874       11.526917737973553       11.634877755670839       -0.279306774458434       -0.595434590844245        1.162588062725256
Mo         11.593157752767514        0.943875066480574       10.089596518952511       -0.104802582534242        0.290991415103577       -2.645591001162053
Se         11.566097708237749        2.850337525622193        8.405939933818386       -0.055076653856415       -0.054925730033445       -0.260131992738735
Se         11.620448830062156        2.870495798244906       11.744927690448097        0.025312779037868        0.026104164944345       -0.226161019938485
Mo          9.933443597611834        3.818589204346238       10.082437158790368       -0.004445439351197        0.012180092445591       -0.218596059728521
Se          9.904864579041732        5.699166699400135        8.358505189420651        0.302774014822914        0.180913954967879        0.284316056984714
Se          9.962245682299747        5.771097555747313       11.697488962726828       -0.361427331884332       -0.210755991357436        0.323436694606545
Mo          8.273725459132622        6.693304669986414       10.030596858565852        0.006857649414409        0.000692141280129       -0.089105990724491
Se          8.259185000465033        8.567491586319910        8.295896637913682        0.381437722504632        0.233090403163131        0.574210124768979
Se          8.288487656143511        8.652202272333378       11.634877755670839       -0.650763984254288       -0.373681986354900        0.792862491681879
Mo          6.614007320653410        9.568020135626588        9.962176638025186       -0.009584562645109       -0.008309294907577        0.019554533826219
Se          6.621446841237328       11.458777677854661        8.252052195793105       -0.385984206255195        0.300282100526106        0.594452171887569
Se          6.606789538412791       11.510348439853487       11.591038624648302        0.713543923732520       -0.474408854337657        0.905122562265947
