# total energy = -9529.154551178864 eV 

 CRYSTAL
 PRIMVEC
        6.373252033781299        0.000000000000000        0.000000000000000
       -3.186626016890650        5.519395592555450        0.000000000000000
        0.000000000000000        0.000000000000000       20.000010552493670
 PRIMCOORD
12 1
Se          3.116161430429553        5.494416905859451        8.309616167473360        0.709300058959191        0.307620803556830       -0.193250884776353
Se          0.025505117313989        5.485096662085249        8.176723665365767       -0.679103724395779        0.047205989344046        1.222596351757803
Se          4.707382100232188        2.741935542859576        8.448721315663484        0.076339943606755        0.423713876445563       -1.738994939016308
Se          1.572093265798850        2.713288412292933        8.228480207806900        0.116750761371113        0.151347798070736        0.622171761669599
Se          3.242631606462706        5.454638890615809       11.597240383993748       -1.245382763701115        1.603182010294253        3.132002284637513
Se         -0.021303232248117        5.540163471632730       11.848387940262953        0.189247675366396       -0.553069476694204       -1.239376149813164
Se          4.765529102487595        2.710452315137900       11.752376810349647        0.146904672713417        0.260379332973313       -0.333885662520522
Se          1.554170406429450        2.706181598950063       11.657640968168302       -0.171983995479979        0.911293726829709        1.898783929645700
Mo          1.581184709825039        0.937897329169307       10.067134739918654        1.315284662116778       -1.316575613590599       -3.126112655995645
Mo          4.735563983400366        0.886249769337950        9.985787188284673       -0.314566127628195       -0.470212812104485        1.293644448474659
Mo          0.014383792515041        3.646997877550842        9.970098153753113       -0.585678535541689        1.152086387172934        0.901866258657912
Mo          3.121206496739495        3.719538232199341       10.077996673359827        0.442887629723539       -2.516971765187665       -2.439444999831625
