# total energy = -9519.228084759055 eV 

 CRYSTAL
 PRIMVEC
        6.671972590841800        0.000000000000000        0.000000000000000
       -3.335986295420900        5.778095062983770        0.000000000000000
        0.000000000000000        0.000000000000000       19.999938398170332
 PRIMCOORD
12 1
Se          3.336904358849400        5.762586062696358        8.664798730504492        0.469622229444583        1.224431091793092       -8.943739064336496
Se         -0.011497143168539        5.786114106840703        8.762629864604005       -0.750987687123668       -0.454971048647091       -9.822149395488893
Se          4.990421327629500        2.850215316618668        8.605407499289853       -0.579502228769309        1.142072192997700       -8.907943121697334
Se          1.673526881777294        2.905247748139708        8.631153307123395       -1.780272476043413       -1.591900775915277       -9.008412622138707
Se          3.276007930618269        5.755783319442735       11.305017045812709       -0.254840402959267       -0.411976013941213        7.907119171932061
Se         -0.065938437918030        5.804742921511592       11.399125886403791        1.550188465149429       -0.850685084940884        6.887066961477450
Se          5.051452529706967        2.864017626317342       11.236838826695934       -2.670850558340714        0.734926769833254        9.476545410856772
Se          1.603671995948440        2.841439003872674       11.251670621765374        0.702062657438262        1.648633220947037        9.678258828357551
Mo          1.656927013971280        0.957199885323191       10.050311233874844       -1.278214223071376       -0.478889003597033       -0.828909888322515
Mo          4.991094529663916        0.998514074000202        9.936099072670297        0.020413539776037       -2.157667908352583        1.677828367492313
Mo         -0.048729419014472        3.806647925093912        9.970739287164688        1.555435060603479        2.037556713648899       -0.316497798295954
Mo          3.244597618055103        3.855391355250825        9.895198546293919        3.016945881006387       -0.841529896715469        2.200833664384616
