# total energy = -38122.920305691136 eV 

 CRYSTAL
 PRIMVEC
       13.277745107833699        0.000000000000000        0.000000000000000
       -6.638872553916849       11.498859207011680        0.000000000000000
        0.000000000000000        0.000000000000000       20.000015178772852
 PRIMCOORD
48 1
Mo          1.634851577441262        0.943875066480574       10.000007589386426        0.003511357155541        0.002027315748074        0.000000000000000
Se          1.634964438274678        2.860416661933549        8.330514374958828       -0.001747836709626       -0.001045668122691       -0.001575058500025
Se          1.634964438274678        2.860416661933549       11.669498148265003       -0.001747836709626       -0.001045668122691        0.001575058500025
Mo         -0.024865233263440        3.818589204346238       10.000007589386426        0.003510842934679        0.002039142827897        0.000000000000000
Se         -0.024753700204534        5.735132127573724        8.330514374958828       -0.001770462427550       -0.001026641950800       -0.001582514702523
Se         -0.024753700204534        5.735132127573724       11.669498148265003       -0.001770462427550       -0.001026641950800        0.001582514702523
Mo         -1.684584699517163        6.693304669986414       10.000007589386426        0.003553009045356        0.002051227018152        0.000000000000000
Se         -1.684471838683747        8.609846265439389        8.330514374958828       -0.001774319084015       -0.001019957079595       -0.001582514702523
Se         -1.684471838683747        8.609846265439389       11.669498148265003       -0.001774319084015       -0.001019957079595        0.001582514702523
Mo         -3.344301510221865        9.568020135626588       10.000007589386426        0.003521384462348        0.002020887987300        0.000000000000000
Se         -3.344189977162959       11.484557747756032        8.330514374958828       -0.001779461292634       -0.000990646490466       -0.001575058500025
Se         -3.344189977162959       11.484557747756032       11.669498148265003       -0.001779461292634       -0.000990646490466        0.001575058500025
Mo          4.954287854399686        0.943875066480574       10.000007589386426        0.003545038621996        0.002006232692735        0.000000000000000
Se          4.954400715233103        2.860416661933549        8.330514374958828       -0.001778947071772       -0.001026899061231       -0.001585085806832
Se          4.954400715233103        2.860416661933549       11.669498148265003       -0.001778947071772       -0.001026899061231        0.001585085806832
Mo          3.294569715920474        3.818589204346238       10.000007589386426        0.003510071603386        0.002066910754441        0.000000000000000
Se          3.294682576753890        5.735132127573724        8.330514374958828       -0.001746036936610       -0.001041297245364       -0.001573772947870
Se          3.294682576753890        5.735132127573724       11.669498148265003       -0.001746036936610       -0.001041297245364        0.001573772947870
Mo          1.634851577441262        6.693304669986414       10.000007589386426        0.003531668879586        0.002052255459876        0.000000000000000
Se          1.634964438274678        8.609846265439389        8.330514374958828       -0.001772519310998       -0.001023556625629       -0.001584057365109
Se          1.634964438274678        8.609846265439389       11.669498148265003       -0.001772519310998       -0.001023556625629        0.001584057365109
Mo         -0.024865233263440        9.568020135626588       10.000007589386426        0.003543238848979        0.002032457956693        0.000000000000000
Se         -0.024753700204534       11.484557747756032        8.330514374958828       -0.001774833304877       -0.000991417821759       -0.001573772947870
Se         -0.024753700204534       11.484557747756032       11.669498148265003       -0.001774833304877       -0.000991417821759        0.001573772947870
Mo          8.273725459132622        0.943875066480574       10.000007589386426        0.003547609726306        0.002005204251012        0.000000000000000
Se          8.273836992191526        2.860416661933549        8.330514374958828       -0.001777661519617       -0.001028184613386       -0.001583543144247
Se          8.273836992191526        2.860416661933549       11.669498148265003       -0.001777661519617       -0.001028184613386        0.001583543144247
Mo          6.614007320653410        3.818589204346238       10.000007589386426        0.003550695051477        0.002049941465998        0.000000000000000
Se          6.614118853712315        5.735132127573724        8.330514374958828       -0.001779204182203       -0.001025613509076       -0.001583543144247
Se          6.614118853712315        5.735132127573724       11.669498148265003       -0.001779204182203       -0.001025613509076        0.001583543144247
Mo          4.954287854399686        6.693304669986414       10.000007589386426        0.003510328713817        0.002069738969181        0.000000000000000
Se          4.954400715233103        8.609846265439389        8.330514374958828       -0.001749636482643       -0.001041040134933       -0.001577886714766
Se          4.954400715233103        8.609846265439389       11.669498148265003       -0.001749636482643       -0.001041040134933        0.001577886714766
Mo          3.294569715920474        9.568020135626588       10.000007589386426        0.003538353750791        0.002042742373931        0.000000000000000
Se          3.294682576753890       11.484557747756032        8.330514374958828       -0.001776375967462       -0.000994760257362       -0.001577886714766
Se          3.294682576753890       11.484557747756032       11.669498148265003       -0.001776375967462       -0.000994760257362        0.001577886714766
Mo         11.593157752767514        0.943875066480574       10.000007589386426        0.003561493689577        0.002014717336957        0.000000000000000
Se         11.593267958051909        2.860416661933549        8.330514374958828       -0.001747579599195       -0.001029984386402       -0.001582257592092
Se         11.593267958051909        2.860416661933549       11.669498148265003       -0.001747579599195       -0.001029984386402        0.001582257592092
Mo          9.933443597611834        3.818589204346238       10.000007589386426        0.003530640437863        0.002057397668495        0.000000000000000
Se          9.933555130670738        5.735132127573724        8.330514374958828       -0.001776375967462       -0.001025613509076       -0.001583028923385
Se          9.933555130670738        5.735132127573724       11.669498148265003       -0.001776375967462       -0.001025613509076        0.001583028923385
Mo          8.273725459132622        6.693304669986414       10.000007589386426        0.003547095505444        0.002028858410659        0.000000000000000
Se          8.273836992191526        8.609846265439389        8.330514374958828       -0.001765577329362       -0.000998359803395       -0.001582257592092
Se          8.273836992191526        8.609846265439389       11.669498148265003       -0.001765577329362       -0.000998359803395        0.001582257592092
Mo          6.614007320653410        9.568020135626588       10.000007589386426        0.003525755339674        0.002076938061248        0.000000000000000
Se          6.614118853712315       11.484557747756032        8.330514374958828       -0.001751950476522       -0.001011472435374       -0.001557832101151
Se          6.614118853712315       11.484557747756032       11.669498148265003       -0.001751950476522       -0.001011472435374        0.001557832101151
