# total energy = -9454.114861503309 eV 

 CRYSTAL
 PRIMVEC
        4.647181682993100        0.000000000000000        0.000000000000000
       -2.323590841496550        4.024575517014100        0.000000000000000
        0.000000000000000        0.000000000000000       20.000094397824135
 PRIMCOORD
12 1
Se          2.302547473399621        4.017232969954970        8.262272180164768        0.151464526206389        0.086279832867443      -13.347582318682894
Se         -0.005198337430596        4.008881519752464        8.224434826901838       -0.324797323007154        0.497899234640922      -12.347331468068216
Se          3.472054892150823        2.008236345515817        8.195607894204063       -0.165400168674536       -0.237306500009917      -11.732023783573801
Se          1.142916709879284        2.009903289585506        8.205885136496002        0.210189062857182       -0.340724285763041      -11.889335258090519
Se          2.299399007809393        4.013310283896356       11.754051105532719        0.506122397554129        0.062832647116578       12.092315715795038
Se         -0.019945703783406        4.011632651308795       11.743026596426153       -0.335768996427261        0.049420224375423       12.258433993903230
Se          3.464622654485212        2.007654983087274       11.798125441332392        0.189959357039277       -0.000444029714258       11.124980656771974
Se          1.149856346286497        2.005053490781135       11.807048030163740       -0.271907136255574       -0.178295799449473       11.014329840375249
Mo          1.141383604642064        0.661254917163781        9.973777145576276        0.559595710763114        1.213634510576465        0.549989807952235
Mo          3.473053106776330        0.654100116244645       10.011996497173548       -0.505344381390062        1.410091562426816        1.169972017191829
Mo         -0.017391612730433        2.677606171334440        9.984323924405830       -0.132804222459029       -1.071723950873901        0.635692170791755
Mo          2.308577191633304        2.674002746657447        9.979175311819242        0.118690916683093       -1.491663446193057        0.470558368523687
