# total energy = -9358.352788350241 eV 

 CRYSTAL
 PRIMVEC
        4.116046478171800        0.000000000000000        0.000000000000000
       -2.058023239085900        3.564599151258733        0.000000000000000
        0.000000000000000        0.000000000000000       19.999952158366341
 PRIMCOORD
12 1
Se          2.039717533978879        3.548970522781115        8.259194241169826        0.705166237450310        0.671472943915491      -23.359001243924812
Se         -0.018298296223361        3.561724092793730        8.196715125259065       -0.471980703427726       -1.041151720860434      -22.475512724650642
Se          3.067691086600034        1.771265278230683        8.266141304415685        1.180411986240723        0.499070886874780      -23.090265307724632
Se          1.020067862150530        1.770324350005773        8.218697694685037       -1.260103364314965       -0.081248953064963      -22.223772045046960
Se          2.045237152306107        3.562424232299667       11.802136813883658       -0.844090716607772       -0.906103952780899       20.541195105005354
Se         -0.021047815270779        3.559802722297719       11.753345610536057        1.056275984850882       -0.408824611389008       21.335393028265610
Se          3.075770062627389        1.770930643652008       11.741393846377390       -0.459460196771551        0.152496053255378       20.211823787431527
Se          1.015510987094546        1.771664946343714       11.752874734818956        0.430610606645477        1.128919708902240       21.326208786561498
Mo          1.020827272725753        0.585390715799958       10.000042347531467       -0.337872931083759       -0.148246017831705        0.743489832736182
Mo          3.068948127194467        0.579855868100761        9.961318993869476        0.181353099583949       -0.541979018254996        3.117203522452653
Mo         -0.013492400355447        2.363357740906401        9.985319660883695        0.495530733350972        0.357357787983189        0.642533879359445
Mo          2.048094100166606        2.368340215168228        9.976937332230898       -0.675840735916540        0.318236379030066        3.230703379534781
