# total energy = -9529.552692000227 eV 

 CRYSTAL
 PRIMVEC
        7.037104892651799        0.000000000000000        0.000000000000000
       -3.518552446325899        6.094308764658774        0.000000000000000
        0.000000000000000        0.000000000000000       19.999937665154004
 PRIMCOORD
12 1
Se          3.486604693823750        6.072088402249737        8.382426939056952       -0.115594792873543        0.115801509660031        0.509225720455746
Se         -0.028729684434740        6.067128650721396        8.364119206968230       -0.003953072875920        0.081658529981473        0.747731640626064
Se          5.246804185148615        3.023183188223058        8.331762598671817       -0.008594687485936        0.070197061190398        1.020647935323133
Se          1.735418326445392        3.028339274977904        8.350152664887784       -0.093654017137639        0.044660338967169        0.793268983273218
Se          3.501558541720635        6.068859778524988       11.668665552693206       -0.131906135723706        0.099534646914423       -0.564884986548703
Se         -0.036533130050202        6.074846243657166       11.669423448890145       -0.025246701657113        0.062639814293362       -0.568024562021084
Se          5.257751105519624        3.038958266260916       11.627207152928637       -0.145372551655362        0.029927397052633       -0.201042873496849
Se          1.730534575649892        3.023494228259313       11.674674536561042       -0.007297308251341        0.041424861304042       -0.682221959702391
Mo          1.720184401773780        1.001434915642514       10.006175559092322        0.178300684547661       -0.030570944461312        0.080910852848258
Mo          5.237370946040016        1.007363676514573       10.036457628866382        0.136749324911590       -0.178464978113041       -0.459287675672381
Mo         -0.025327947929632        4.049378157430366       10.029509895205866        0.036560074839958       -0.083513838851238       -0.506840249877353
Mo          3.475100434745243        4.057135861864026       10.013563111808628        0.180009183361351       -0.253294655048371       -0.169483082318088
