# total energy = -9448.48585604401 eV 

 CRYSTAL
 PRIMVEC
        4.647181682993100        0.000000000000000        0.000000000000000
       -2.323590841496550        4.024575517014100        0.000000000000000
        0.000000000000000        0.000000000000000       20.000094397824135
 PRIMCOORD
12 1
Se          2.298780932645555        4.017269682690266        8.289006022232522        0.230797235229451       -0.168249466470370      -14.546378986288994
Se         -0.009355706164202        4.007159738938914        8.266204160586748       -0.259281214322708        0.351141114873149      -14.071706593759609
Se          3.457512001792064        2.004610149648577        8.296551651131198       -0.118170782281273       -0.013857223786705      -14.556728452466192
Se          1.146398843114351        2.006492722948357        8.267926870836634        0.078476274177553       -0.288491016162548      -14.021543320238727
Se          2.319271286122208        4.007454834975785       11.739347887405897       -0.431578370307589        0.645312214676336       14.613283234190163
Se         -0.016839527546494        4.013108596211314       11.729250026326920        0.182602399167955        0.009155188225416       14.822210656162651
Se          3.464680744256250        2.006485287457664       11.718232023274712        0.482783198184265       -0.430134952348212       14.992021040059345
Se          1.139607451802825        2.000742765051990       11.715261080024774       -0.443340401192449       -0.274524006221825       15.182376861383153
Mo          1.147143786338134        0.652712932512271        9.994616037679153        0.181922342078081        0.029811954469135       -0.824125834533750
Mo          3.468847407353221        0.663724894228292       10.016975952346876        0.130360387812810       -0.170091919818588       -0.308595252090147
Mo         -0.024184862914633        2.672910658961944        9.993303673571878        0.480404155366646        0.038811076662962       -0.567687747356534
Mo          2.299696892155273        2.670445793797284       10.036983928364833       -0.514974966802312        0.271117035901251       -0.713125605061358
