# total energy = -9524.317027952296 eV 

 CRYSTAL
 PRIMVEC
        6.771563749103600        0.000000000000000        0.000000000000000
       -3.385781874551800        5.864343495817446        0.000000000000000
        0.000000000000000        0.000000000000000       19.999962507379962
 PRIMCOORD
12 1
Se          3.329309741509776        5.792284577337734        8.671552806300211        0.783445050816890        0.212635468607711       -7.716954897879313
Se         -0.035542583806295        5.797566397062035        8.456712080388776        0.938003901059813        1.567958909695257       -6.133476802571663
Se          5.021038001289955        2.937618116632127        8.688948953571657       -2.085999147055404       -0.670901387427480       -7.926239703350830
Se          1.723614199161958        2.917451045474547        8.592522562940797       -0.254978214150259        0.501589026435545       -5.745755815355373
Se          3.446940606864579        5.798642398541768       11.384258850256860       -0.168876044590605        2.107608507445808        5.429832401762171
Se         -0.049227914143233        5.799253193591936       11.268139397930856        0.828627838179758        0.153427821457155        5.760141658188121
Se          4.997936134403513        2.900918949737485       11.457028782930227        1.196085695222119       -0.053558159651199        3.668677886033217
Se          1.686447117212253        2.911525250037706       11.512586754866122       -1.514769960622907       -0.320905956634663        2.133783377758666
Mo          1.738606441302473        0.941000199048558        9.885056982365695       -1.628868627898729        0.952319809855341        2.098068424905254
Mo          5.081186416291367        0.953511340231402        9.943402807097096       -1.143927758977896       -0.281085721530206        2.453623868767455
Mo         -0.097609382817829        3.940083122674923        9.813407743492803        2.752709120237469       -2.198276186927915        4.803949508132179
Mo          3.319982589601760        3.915516566549550       10.065176515153601        0.298548404890182       -1.970812131325354        1.174350350720547
