# total energy = -9497.951412353355 eV 

 CRYSTAL
 PRIMVEC
        8.630457589390799        0.000000000000000        0.000000000000000
       -4.315228794695400        7.474192033852167        0.000000000000000
        0.000000000000000        0.000000000000000       20.000041178044860
 PRIMCOORD
12 1
Se          4.263582410388967        7.466585148532878        7.734633352527213        0.023646189224423        0.001379654572500        3.294926222751529
Se         -0.024922172380884        7.454442957750364        7.658391890182535       -0.018293664272820       -0.012867605737963        3.279304707187616
Se          6.442142065260359        3.716706560871148        7.681916791479696       -0.009235149569443        0.020783007465318        3.305430212297730
Se          2.109078429956484        3.732880901439425        7.699240708998880        0.000973934312454       -0.006337772123020        3.311791895690829
Se          4.292114703179493        7.464191059597581       12.280319530140597       -0.011613163945338        0.011189188844694       -3.302498382053560
Se         -0.044515037200319        7.451525000039391       12.268638205793357        0.020949615024576        0.022320270731993       -3.362559635834883
Se          6.455622840014987        3.715292028872246       12.301811958675458       -0.029381294497287       -0.027368119822916       -3.341263435949380
Se          2.125575549638604        3.718718320535235       12.292565286414183        0.027652741069982       -0.008089465489111       -3.330104586135539
Mo          2.118710020626244        1.232597637687999       10.016495269514818       -0.059243128390027       -0.010900453830733        0.086479350561863
Mo          6.423128304145172        1.233307924347606       10.035159497097634        0.064169364247109       -0.025011959833652        0.031132216532085
Mo         -0.041263943826395        4.973327077259216       10.010616201804925        0.024917600305492       -0.011515976202437        0.006700812051527
Mo          4.279254458325542        4.949825478197546       10.021601911270460       -0.034542786398692        0.046419488535757        0.020660880010615
