# total energy = -9493.732586613276 eV 

 CRYSTAL
 PRIMVEC
        4.912722826541299        0.000000000000000        0.000000000000000
       -2.456361413270649        4.254540785855428        0.000000000000000
        0.000000000000000        0.000000000000000       20.000043430170312
 PRIMCOORD
12 1
Se          2.450946118898953        4.237418964260367        7.874348448348351       -0.062541340998307        0.051423114632556       -2.668542220891607
Se         -0.018625114779983        4.244315444564266        7.878077696245978        0.077639379724797       -0.164360414091757       -2.629157273746756
Se          3.660954663798901        2.115765287340237        7.910303684171241        0.211395167888788        0.112688930782899       -1.762681494578391
Se          1.214344022794371        2.117868423982280        7.867664197670559       -0.097773440462387        0.028692238542330       -2.609836196191844
Se          2.452178721056132        4.236255631495042       12.128564011952664       -0.139230183459867        0.247317608859979        3.176453849934747
Se         -0.010914596303727        4.241416938096607       12.136666565710478        0.126192113506181        0.205335589252060        3.230952519542376
Se          3.673582326552243        2.117351605540927       12.077154332662039        0.035066006125683       -0.303002071775170        2.279894864792590
Se          1.214663349778096        2.123155496288203       12.075601912248851        0.079066342616593       -0.158511151787550        2.603951709758596
Mo          1.214801397289522        0.694688484009899       10.022249820786124       -0.081472124919031        0.017888972454498       -0.049456219835757
Mo          3.665872299348270        0.705169286888042        9.973283729829424       -0.031788619462311        0.058888058884879       -2.447979009255856
Mo         -0.030902500395793        2.830634254177002       10.038498651534910        0.046533645567101       -0.067959686220235        0.493681338021119
Mo          2.446174391217534        2.827570680222371       10.035432621218865       -0.163086946127241       -0.028401189534490        0.382718132450784
