# total energy = -38122.03717833343 eV 

 CRYSTAL
 PRIMVEC
       13.277745107833699        0.000000000000000        0.000000000000000
       -6.638872553916849       11.498859207011680        0.000000000000000
        0.000000000000000        0.000000000000000       20.000015178772852
 PRIMCOORD
48 1
Mo          1.634851577441262        0.943875066480574       10.012507258630940       -0.030355485920172       -0.002831814286529        0.115143306956788
Se          1.596749760079822        2.794227102570998        8.330514374958828        0.319842805002667        0.640365667095209       -0.072981310047201
Se          1.673177788695023        2.926607549070611       11.669498148265003       -0.366444841944402       -0.648148656950622       -0.000305704302404
Mo         -0.024865233263440        3.818589204346238       10.000007589386426       -0.004180101386453       -0.073862684604512        0.637807161196784
Se         -0.045451049278626        5.719809609719284        8.390979898405391        0.322527037901829        0.190702149074304       -0.808771713818030
Se         -0.004057678904954        5.750454645428165       11.729968982809611       -0.266467965088738       -0.178308140750159       -0.692643673910687
Mo         -1.684584699517163        6.693304669986414        9.987511903465442       -0.024174036939172        0.087557671709285        0.167252649329561
Se         -1.659048940125778        8.666566136991031        8.367884588564824       -0.237970616253072       -0.588344513600253       -0.505740845674593
Se         -1.709896065016227        8.553126393887744       11.706868361871003        0.200398554756878        0.526833671209211       -0.412005067419911
Mo         -3.344301510221865        9.568020135626588        9.992285252831710        0.011659443822909       -0.036875292228308       -0.544230534298862
Se         -3.307781072302768       11.534938823793196        8.293144161352828       -0.440936161552597       -0.467104604104680        0.354744774673402
Se         -3.380598882023150       11.434188621689463       11.632127934659007        0.491635767432448        0.533644269414755        0.460371653249284
Mo          4.954287854399686        0.943875066480574       10.000007589386426       -0.060588844385641       -0.042974465871402        0.118571360332700
Se          4.933703366159011        2.845094144079109        8.390979898405391        0.283330809813298        0.220703079710190       -0.827824110972595
Se          4.975096736532683        2.875739179787989       11.729968982809611       -0.230670222676559       -0.206185596336795       -0.702897237897139
Mo          3.294569715920474        3.818589204346238        9.987511903465442       -0.033166988482656        0.071232959116712        0.352211722707642
Se          3.320105475311860        5.791851999125369        8.367884588564824       -0.266316784155337       -0.594229771364794       -0.538570248161406
Se          3.269258350421410        5.678412256022080       11.706868361871003        0.228675559953217        0.563539013442658       -0.444417436787716
Mo          1.634851577441262        6.693304669986414        9.992285252831710       -0.009242348661509       -0.070117099846371        0.192797341976150
Se          1.671373343134869        8.660224685927531        8.293144161352828       -0.374031399430567       -0.487541026709072        0.442380865064128
Se          1.598555533414487        8.559469172725757       11.632127934659007        0.381098850956635        0.529389606003326        0.535476181235304
Mo         -0.024865233263440        9.568020135626588       10.007727270392120        0.052804311867642        0.047629707334258       -0.190522171772636
Se         -0.027676131902769       11.458978171805791        8.270048851512263        0.018121914504942        0.285650203010935        0.610279890017107
Se         -0.021832596280811       11.510147945902359       11.609037935916483       -0.004011951164609       -0.325003782683210        0.697261634361055
Mo          8.273725459132622        0.943875066480574        9.987511903465442        0.044197283081020        0.043940429760497       -0.360805124641423
Se          8.299259890749497        2.917136533485193        8.367884588564824       -0.237073557959473       -0.572542763624241       -0.500306816716377
Se          8.248412765859047        2.803696790381905       11.706868361871003        0.189395513864195        0.521693262363144       -0.410507656270033
Mo          6.614007320653410        3.818589204346238        9.992285252831710       -0.006258324999855       -0.072378643197044        0.176918715981282
Se          6.650527758572506        5.785509220287356        8.293144161352828       -0.376919006680613       -0.482373878378186        0.446634757144265
Se          6.577709948852124        5.684753707085582       11.632127934659007        0.380707014659860        0.524375695489289        0.538868239150882
Mo          4.954287854399686        6.693304669986414       10.007727270392120        0.057635931086132        0.046780471580817       -0.187578771559073
Se          4.951478283534868        8.584261378391103        8.270048851512263        0.021139619633051        0.249015823256432        0.731269373952931
Se          4.957321819156826        8.635431152487673       11.609037935916483       -0.003221850810287       -0.296540372424430        0.858327949611428
Mo          3.294569715920474        9.568020135626588       10.012507258630940       -0.073109093931385       -0.000892687416273       -0.325316686077682
Se          3.256467898559034       11.418368188393480        8.330514374958828        0.406109268127701        0.667673623077281       -0.062065943811473
Se          3.332895927174236       11.550748634893093       11.669498148265003       -0.446907551311507       -0.661179527812241        0.021389273861508
Mo         11.593157752767514        0.943875066480574        9.992285252831710       -0.032584890466976       -0.032983925855817       -0.321149440212777
Se         11.629678190686610        2.910793754647181        8.293144161352828       -0.393208495144145       -0.484843681177932        0.350889146650813
Se         11.556868347613294        2.810039569219917       11.632127934659007        0.418238966928825        0.568853486050480        0.452822376775607
Mo          9.933443597611834        3.818589204346238       10.007727270392120        0.057736204154205        0.052561856731252       -0.207419726405375
Se          9.930632698972506        5.709547240525440        8.270048851512263        0.033191928194458        0.286651648139502        0.661546167286782
Se          9.936476234594462        5.760717014622009       11.609037935916483       -0.002841584482905       -0.331659600409321        0.774522547531488
Mo          8.273725459132622        6.693304669986414       10.012507258630940       -0.077206405759070       -0.006513635657793       -0.347568051214179
Se          8.235622313996672        8.543656706076838        8.330514374958828        0.388893410781441        0.674448225822492        0.002680633353128
Se          8.312050342611872        8.676035824801939       11.669498148265003       -0.441494862519060       -0.662424713629352        0.084510913102478
Mo          6.614007320653410        9.568020135626588       10.000007589386426        0.074483606295266       -0.024975193042025       -0.044913849852090
Se          6.593421504638224       11.469237885450612        8.390979898405391        0.282309310071117        0.082457629200878       -0.691704963727274
Se          6.634814875011895       11.499888232257536       11.729968982809611       -0.224749997893409       -0.064863562410685       -0.584431549951562
