# total energy = -38121.234783378444 eV 

 CRYSTAL
 PRIMVEC
       13.277745107833699        0.000000000000000        0.000000000000000
       -6.638872553916849       11.498859207011680        0.000000000000000
        0.000000000000000        0.000000000000000       20.000015178772852
 PRIMCOORD
48 1
Mo          1.634851577441262        0.943875066480574       10.095117405368349       -0.111065021300993       -0.089514796309708       -2.271629278658275
Se          1.655312582652433        2.895662436322294        8.330514374958828       -0.529498363715619       -0.764704785725503       -0.224507285646588
Se          1.614614966122412        2.825172215319315       11.669498148265003        0.365150290924548        0.842910579729692        0.126031676597266
Mo         -0.024865233263440        3.818589204346238       10.000007589386426        0.018177193247597        0.027403601062387       -0.055290826845400
Se         -0.034653586956935        5.755368738892574        8.361932175432983        0.215194745837428       -0.528558625090482       -1.054867019689253
Se         -0.014853813452134        5.714894188480364       11.700918604288182       -0.094477027627123        0.358564664346088       -0.791156563972498
Mo         -1.684584699517163        6.693304669986414        9.904901756728034       -0.125983082725815       -0.057913610351563        2.687954315539077
Se         -1.710939695781702        8.587109454716733        8.349930421630011        0.567925060284305        0.580172772773237       -0.700063366727163
Se         -1.658005309360302        8.632584403936553       11.688918178259723       -0.528232609064032       -0.450390369209212       -0.383190444312447
Mo         -3.344301510221865        9.568020135626588        9.941229667343068        0.016401588611428        0.039143263339754        1.767711603049578
Se         -3.350648272383409       11.450267971015050        8.311097000513131       -0.116076103600290        0.649940716654373        0.213267703157427
Se         -3.337733009717019       11.518847524497012       11.650088740466373        0.249238223779207       -0.681865347534658        0.433817802161200
Mo          4.954287854399686        0.943875066480574       10.000007589386426       -0.001877420366827        0.029378466282546       -0.442017568025190
Se          4.944500828480701        2.880654601026909        8.361932175432983        0.208245307999168       -0.529315558199211       -1.068593374266603
Se          4.964300601985504        2.840178722840189       11.700918604288182       -0.091515629683393        0.363690160787159       -0.788467703085580
Mo          3.294569715920474        3.818589204346238        9.904901756728034       -0.053261968434740        0.006518006535119        3.083396328996921
Se          3.268214719655935        5.712393989076559        8.349930421630011        0.571610738312033        0.620267858928384       -0.728691070551323
Se          3.321149106077335        5.757868938296379       11.688918178259723       -0.530481039782726       -0.478730623571566       -0.394003480596655
Mo          1.634851577441262        6.693304669986414        9.941229667343068       -0.005481594387943        0.028695838088363        1.888215148270898
Se          1.628506143054228        8.575556488698407        8.311097000513131        0.147912545602758        0.677718927614660        0.378866875305521
Se          1.641421405720617        8.644136042180369       11.650088740466373       -0.252343860674702       -0.789044401782210        0.705620551581806
Mo         -0.024865233263440        9.568020135626588       10.058786839204295       -0.032624485473343       -0.006892873543450       -1.799213287270944
Se         -0.002278461060504       11.486108588384626        8.299096574484670       -0.466739507292725       -0.378083716932835        0.076732037013960
Se         -0.047230267123075       11.483017529323522       11.638088314437912        0.437047109173984        0.401933537618574        0.246900832851403
Mo          8.273725459132622        0.943875066480574        9.904901756728034       -0.040427272831940       -0.109766613624674        2.308623870126546
Se          8.247370462868082        2.837678523436383        8.349930421630011        0.554850480649424        0.621539012899021       -0.722157894500778
Se          8.300303521514973        2.883153472656204       11.688918178259723       -0.526573218342654       -0.479143285813247       -0.403568759959443
Mo          6.614007320653410        3.818589204346238        9.941229667343068        0.001738580734112        0.028575510406676        1.865280126498494
Se          6.607660558491865        5.700842350832744        8.311097000513131        0.144418414846091        0.699952809241852        0.394154918640487
Se          6.620575821158255        5.769420576540194       11.650088740466373       -0.252641594553747       -0.810196362715947        0.724175697162906
Mo          4.954287854399686        6.693304669986414       10.058786839204295       -0.025453675554031       -0.010209855213190       -1.898230885108718
Se          4.976875954377133        8.611390467195429        8.299096574484670       -0.335442209069518       -0.076089003826144        0.782285482773287
Se          4.931924148314562        8.608300735908836       11.638088314437912        0.539484532853879        0.056034133101288        1.056018874419928
Mo          3.294569715920474        9.568020135626588       10.095117405368349       -0.004702292671721        0.041660374458796       -3.060870369920165
Se          3.315030721131646       11.519808833242820        8.330514374958828       -0.109387118628586       -0.864148672657799       -0.360586323664681
Se          3.274333104601624       11.449318612239839       11.669498148265003        0.090181740767603        0.932985876778880       -0.005031394023342
Mo         11.593157752767514        0.943875066480574        9.941229667343068       -0.016557397532586        0.062981514056100        1.911393396510985
Se         11.586817629478523        2.826126885192568        8.311097000513131       -0.029258909932153        0.623143639098606        0.102448479428426
Se         11.599727581046871        2.894706438674530       11.650088740466373        0.075144894323680       -0.595837482889550        0.265657038789509
Mo          9.933443597611834        3.818589204346238       10.058786839204295       -0.027546040241136       -0.029789328751211       -1.775328242456164
Se          9.956031697589280        5.736677657104276        8.299096574484670       -0.651398275687452       -0.252224818545171        0.359759713629163
Se          9.911078563752199        5.733586598043172       11.638088314437912        0.804474112964631        0.204195304490778        0.713637511929388
Mo          8.273725459132622        6.693304669986414       10.095117405368349       -0.037850254982486        0.039005709259194       -3.046809514672144
Se          8.294185136569283        8.645090712053621        8.330514374958828       -0.443784688017138       -0.657185317267368        0.044570350316335
Se          8.253487520039261        8.574601818825155       11.669498148265003        0.350983249068543        0.796703721520334        0.317150087459285
Mo          6.614007320653410        9.568020135626588       10.000007589386426       -0.000413176462543       -0.004475778382050       -0.143779238314739
Se          6.604218966959914       11.504798342398413        8.361932175432983        0.545531255969059       -0.156863073925134       -0.242728958998741
Se          6.624018740464717       11.464327775309735       11.700918604288182       -0.462616741532375        0.067827788569155       -0.092887570942965
