# total energy = -9528.97678348176 eV 

 CRYSTAL
 PRIMVEC
        6.605613763817199        0.000000000000000        0.000000000000000
       -3.302806881908599        5.720626659809790        0.000000000000000
        0.000000000000000        0.000000000000000       20.000021566736013
 PRIMCOORD
12 1
Se          3.260358547300934        5.746894543502985        8.228325721388359        0.389335640722682       -0.727124496695519        0.497036372034640
Se         -0.057609539318379        5.661965506780211        8.164853039293215        0.215151037064166        1.048035595538801        0.359572023014566
Se          4.862548844592043        2.858069402909326        8.135093428164465       -0.176939799036621        0.270616441892184        1.154667775899713
Se          1.552664047535513        2.902803279879273        8.035854650345135        0.537947269587204       -0.490062251595008        2.090884245243533
Se          3.302794331242448        5.699519742150264       11.880083398229871       -0.058103357849607       -0.034706565743209       -2.650865364542647
Se         -0.005133222455862        5.656173044070719       11.743205833184309        0.089554134205644        0.326666001619329       -2.193444567709424
Se          5.000657035481804        2.796422512458502       11.757553886840695       -0.365371405895168        0.381246432344002       -2.180502914167346
Se          1.657239500714632        2.832322702142096       11.660193085014418       -0.808704607995551       -0.245622222678268       -1.098919549597646
Mo          1.639809928237424        0.891716903309986        9.924350743878620       -0.220032535706262        0.770101276560800        0.660160856284801
Mo          4.962588883360924        0.980963369188791        9.828225852387552       -0.834405366673729       -0.545646441442126        2.445368309939948
Mo         -0.054535947234075        3.843328402728728        9.809667380518107        0.243620360862859       -1.252039866979381        2.104461475770929
Mo          3.231447096979458        3.788028185982179       10.031296291276197        0.987948116493521        0.498536354288826       -1.188418662171066
