# total energy = -9513.15935960116 eV 

 CRYSTAL
 PRIMVEC
        5.443805113637699        0.000000000000000        0.000000000000000
       -2.721902556818850        4.714471323538089        0.000000000000000
        0.000000000000000        0.000000000000000       19.999957500357748
 PRIMCOORD
12 1
Se          2.697538807032764        4.708710688966837        7.612234371411470        0.048754051248821       -0.042044497442641        0.703944705792847
Se         -0.018549765924720        4.707152671943314        7.644835687095513       -0.054280639962181        0.015881711320039        1.085253358861140
Se          4.061957244919065        2.339350584448699        7.596444070298853       -0.064267837542164        0.081472896250324        0.565533161945138
Se          1.337388856736067        2.346662703477338        7.609189106830901       -0.009278601232274        0.061544266747067        0.871058258379261
Se          2.687021919933728        4.710974767513599       12.395598137423667       -0.079657182386925        0.116969819458286       -0.455370598256794
Se         -0.027190173401086        4.701382782903369       12.365238580685421        0.010808151186020        0.071425020608635       -0.915589270799660
Se          4.060421003115996        2.354267154840578       12.350235998172748        0.050726345364670       -0.055011090696521       -0.935927734329858
Se          1.351464903618400        2.345063313534951       12.341644040561892       -0.043906748294042       -0.010408344465886       -0.970610645913420
Mo          1.346793574450387        0.767750178406041        9.963083905401707        0.190234465200398       -0.123033768972340       -1.078153511420772
Mo          4.068843114007305        0.770472625343371       10.015023249990923        0.070591725701913        0.023902271213654        0.312406142897749
Mo         -0.014950866364095        3.126341347648380       10.026548329797006       -0.020727985833094       -0.078900763499058        0.717023142084192
Mo          2.691369342697478        3.130463941260939       10.003182429488250       -0.098995229230281       -0.061797520521557        0.100432990760177
