# total energy = -9480.185668700502 eV 

 CRYSTAL
 PRIMVEC
        4.647181682993100        0.000000000000000        0.000000000000000
       -2.323590841496550        4.024575517014100        0.000000000000000
        0.000000000000000        0.000000000000000       20.000094397824135
 PRIMCOORD
12 1
Se          2.308909465123638        4.013877704779850        7.635839060069822       -0.261318814488019        0.027036704477416       -2.267559477646702
Se         -0.021872890027344        4.021410786287981        7.610920407167445        0.207922891518752       -0.125184240616841       -2.586883176689273
Se          3.462100628985851        2.007654983087274        7.662041264553042        0.077498483208634       -0.109744759238043       -1.785377660760439
Se          1.139534491050401        1.998218415961788        7.660981707129320       -0.056200226439684        0.182480271713252       -1.878729316031276
Se          2.304507189915339        4.008488368182083       12.390886012388705       -0.226971689127284        0.168615591724049        2.240145335056645
Se         -0.025377329734489        4.020156047233573       12.372093274380852        0.220170861118115       -0.299466032018257        2.056274867243224
Se          3.458150989273476        2.003702555065888       12.370784163300751        0.330231866186232       -0.090807290446115        2.046645824493560
Se          1.143965578785135        1.995617853091985       12.355248170216337       -0.371994570596548        0.206457104951882        1.758131411281795
Mo          1.140427679369873        0.663124013636681       10.022892279347495        0.678534224791216       -0.855303045391252        1.189832512430883
Mo          3.474791617443937        0.663001328040250        9.986916122348603       -0.449122557674177        0.442668057415504       -0.195701918514639
Mo         -0.005740198814833        2.666580732791539        9.966632568456843       -0.671060538784240        0.507706969140099       -0.917896836917474
Mo          2.294450688753342        2.677656360896616       10.003286749263282        0.522309298955710       -0.054459331711694        0.341118178943262
