# total energy = -9525.094031817489 eV 

 CRYSTAL
 PRIMVEC
        5.974940318459000        0.000000000000000        0.000000000000000
       -2.987470159229500        5.174447689293456        0.000000000000000
        0.000000000000000        0.000000000000000       20.000067101485772
 PRIMCOORD
12 1
Se          2.970727181469114        5.157904274539706        8.063582878255788       -0.056434711152715        0.079487746612927        1.889739556016026
Se         -0.029313057202360        5.166834420339675        8.021896914641964        0.090666651040383        0.031077709120722        2.151359961039554
Se          4.458373199405322        2.574886190383141        8.004018100727039        0.031729998284053       -0.034955962861235        2.164472078797354
Se          1.457886035198028        2.578094733334154        8.061554983511703        0.170396595679268       -0.114331352215835        1.861468978580461
Se          2.960801013118058        5.169696416752217       11.982053898050806       -0.042166882007775       -0.117923442046695       -2.193041932774550
Se         -0.032421818650054        5.170023245987636       11.938430261291705        0.172111779364163       -0.144298344274835       -1.906637881980057
Se          4.449162231410386        2.576367378088088       11.996382402428504        0.099468055312806        0.067063399257929       -2.273116148280483
Se          1.464791273724071        2.581446077358778       11.997795475813817        0.060448719200771        0.036703028239568       -2.308788163691925
Mo          1.473588775848970        0.842137365691172       10.036942549572103       -0.080344952789728        0.247695561193482       -0.202757800071314
Mo          4.464605659651507        0.857066949064905       10.005435494284804       -0.071027527882380        0.043682547998250        0.030852994604068
Mo         -0.012942915717846        3.437757793967430        9.973293302841654       -0.294654981634243       -0.034645630571073        0.351147285523491
Mo          2.976000663794186        3.434206886936169        9.969367169558396       -0.080193000525034       -0.059555260453205        0.435301072237374
