# total energy = -9517.192366744419 eV 

 CRYSTAL
 PRIMVEC
        6.506022605555400        0.000000000000000        0.000000000000000
       -3.253011302777700        5.634378226976116        0.000000000000000
        0.000000000000000        0.000000000000000       19.999994935150113
 PRIMCOORD
12 1
Se          3.228762705924535        5.631054950629198        7.718025002528493        0.031533823025235       -0.009752969977384        3.699897263001396
Se         -0.021165392740393        5.623871651070404        7.695007345152296       -0.046261108510289       -0.027652483959551        3.693355088085767
Se          4.846491732818491        2.803729453921685        7.695944863009759        0.047036296459616        0.032601345534557        3.602939376825995
Se          1.593596237243169        2.804315646558445        7.718863628842349       -0.027595662554310        0.000080732675320        3.697035623904875
Se          3.232037837704171        5.612865412628586       12.290192894592781       -0.030079863538189       -0.029138325140035       -3.752006605374168
Se         -0.018269562078660        5.619489844845562       12.272816609417864        0.013374884618235        0.016857445405510       -3.697039994782202
Se          4.860160886312762        2.795673046129226       12.319115418085778       -0.043423637794279       -0.001800030127110       -3.660213039314913
Se          1.595017152580222        2.804887525945474       12.340698497477447        0.047881932667024        0.031266942397905       -3.543503929833614
Mo          1.590505876505530        0.929116630469980        9.984434410900306       -0.044853943121677       -0.063375150125891       -0.163356397858881
Mo          4.868476233804923        0.916931500732035       10.021298185585644        0.069773600310617       -0.060588587275210        0.180556057247991
Mo         -0.038102521389435        3.753463019426408        9.986848795889228       -0.040292546966120        0.044331237615547       -0.127614191299789
Mo          3.230801693409115        3.740106805619464       10.026028064019883        0.022906225404137        0.067170100086775        0.069951006507975
