# total energy = -9523.82801385721 eV 

 CRYSTAL
 PRIMVEC
        7.568240097473099        0.000000000000000        0.000000000000000
       -3.784120048736550        6.554285130414141        0.000000000000000
        0.000000000000000        0.000000000000000       20.000020487584848
 PRIMCOORD
12 1
Se          3.775880505742431        6.592821095342455        8.495309397741037        0.034189773776992        0.221079232270676       -0.377663598488656
Se          0.006380026402170        6.478425632621129        8.372323982509080       -0.300221422464401        0.297654689032185       -0.230757640223084
Se          5.563506385005675        3.314678008794498        8.745369348329616        0.793032184566309       -0.433166284329162       -3.904127791621214
Se          1.908030524621963        3.310331568506519        8.654442998150556       -1.166929629462348       -0.796128565486290       -2.306291621407361
Se          3.742325199622264        6.496780885329530       11.525695549162075       -0.175434674573815        0.014635754171635       -0.023758032261888
Se         -0.033136025618766        6.563050666095035       11.297295144908455        0.049742383745409       -0.107923903166026        2.176468851505676
Se          5.670534165992109        3.228640741718404       11.247397737945814       -0.208904796254566        0.183849641868514        3.270938076653937
Se          1.906404866649025        3.288460111448832       11.412696426738734       -0.260932891731157        0.258647951331268        1.590480755005117
Mo          1.846297903794894        1.091607380931062       10.116750347295946        0.075760673805815       -0.372433972323048       -1.124749377712163
Mo          5.613065491635957        1.065631667268514        9.935475103657263        0.370887710191290       -1.053747560872879       -0.230969499218190
Mo         -0.048829528284887        4.396716106946315        9.945551458523038        0.964428168490696        0.220137950982953       -0.217727540692758
Mo          3.722105132553845        4.353646009375606        9.800836112323214       -0.175617480090223        1.567395323630605        1.378157418460585
