# total energy = -38122.53973186683 eV 

 CRYSTAL
 PRIMVEC
       13.277745107833699        0.000000000000000        0.000000000000000
       -6.638872553916849       11.498859207011680        0.000000000000000
        0.000000000000000        0.000000000000000       20.000015178772852
 PRIMCOORD
48 1
Mo          1.634851577441262        0.943875066480574        9.914504221990020        0.165726184700986        0.095682104217006        1.250102539882141
Se          1.665910878797506        2.878284523525161        8.264674020292611       -0.111583870150658       -0.064441644193489       -0.060570846655474
Se          1.604016669977339        2.842550128116448       11.603657793598789        0.129958267098798        0.075032279954922       -0.068403201713631
Mo         -0.024865233263440        3.818589204346238        9.914504221990020        0.165738526001672        0.095676447787525        1.250109738974208
Se          0.006192740318294        5.752998661390825        8.264674020292611       -0.111598268334792       -0.064431616886682       -0.060578302857972
Se         -0.055701468501873        5.717264265982112       11.603657793598789        0.129964951970002        0.075035108169663       -0.068396002621564
Mo         -1.684584699517163        6.693304669986414        9.914504221990020        0.165745982204169        0.095693417075967        1.250112310078517
Se         -1.653525398160919        8.627714127031000        8.264674020292611       -0.111598525445223       -0.064431102665820       -0.060578302857972
Se         -1.715419606981086        8.591979731622287       11.603657793598789        0.129964694859571        0.075035365280093       -0.068396002621564
Mo         -3.344301510221865        9.568020135626588        9.914504221990020        0.165727470253141        0.095695473959415        1.250109738974208
Se         -3.313243536640131       11.502428264896665        8.264674020292611       -0.111599810997378       -0.064413619156515       -0.060570846655474
Se         -3.375137745460298       11.466697852811484       11.603657793598789        0.129959038430091        0.075030994402767       -0.068403201713631
Mo          4.954287854399686        0.943875066480574        9.981867534020104        0.020498900439113        0.011798026345194        0.067963285766268
Se          4.993299197301012        2.882874640008939        8.339774274397030       -0.025688931598354       -0.014831415209591        0.003249361626399
Se          4.915500905390682        2.837958683858159       11.678758047703207        0.020530267911690        0.011853047977418       -0.015941103829589
Mo          3.294569715920474        3.818589204346238        9.981867534020104        0.020467018745675        0.011853562198280        0.067963285766268
Se          3.333579731047289        5.757590105649114        8.339774274397030       -0.025668105653447       -0.014844013620708        0.003260931595792
Se          3.255782766911470        5.712672821723824       11.678758047703207        0.020566520482454        0.011836335799406       -0.015952673798982
Mo          1.634851577441262        6.693304669986414        9.981867534020104        0.020473703616880        0.011832222032511        0.067962771545406
Se          1.673861592568077        8.632304243514779        8.339774274397030       -0.025680189843702       -0.014826530111403        0.003251418509846
Se          1.596064628432257        8.587388287363998       11.678758047703207        0.020535667230740        0.011856390413020       -0.015943932044329
Mo         -0.024865233263440        9.568020135626588        9.981867534020104        0.020483988034118        0.011814481412775        0.067962771545406
Se          0.014144781863375       11.507018381380442        8.339774274397030       -0.025689445819216       -0.014807246829081        0.003260931595792
Se         -0.063653510046955       11.462098441906130       11.678758047703207        0.020533867457723        0.011892900094216       -0.015952673798982
Mo          8.273725459132622        0.943875066480574       10.064186898139651       -0.005536101799305       -0.003220565258132       -0.070715910040064
Se          8.288617778045568        2.868951596488865        8.407242480613466       -0.017935509442500       -0.010360264815298        0.006548345565972
Se          8.259054878562976        2.851883055152744       11.746228909468664        0.011957691922816        0.006898787083362        0.003052157925857
Mo          6.614007320653410        3.818589204346238       10.064186898139651       -0.005527360044653       -0.003191254669003       -0.070720280917390
Se          6.628899639566355        5.743665734354528        8.407242480613466       -0.017940137430258       -0.010352551502369        0.006548345565972
Se          6.599338067858274        5.726598520792919       11.746228909468664        0.011953321045490        0.006906243285860        0.003052157925857
Mo          4.954287854399686        6.693304669986414       10.064186898139651       -0.005557184854643       -0.003184055576936       -0.070715910040064
Se          4.969181501087143        8.618379872220194        8.407242480613466       -0.017939366098965       -0.010355122606679        0.006554516216314
Se          4.939619929379062        8.601312658658584       11.746228909468664        0.011960520137557        0.006896473089483        0.003044701723359
Mo          3.294569715920474        9.568020135626588       10.064186898139651       -0.005518875400431       -0.003186369570815       -0.070726194457302
Se          3.309463362607931       11.493097993409389        8.407242480613466       -0.017937566325948       -0.010358207931850        0.006554516216314
Se          3.279901790899850       11.476028124298757       11.746228909468664        0.011952806824628        0.006909842831893        0.003044701723359
Mo         11.593157752767514        0.943875066480574       10.093597103553503       -0.005914568353670       -0.003457106854610       -0.040509033948983
Se         11.571748716555643        2.847991348061638        8.411451525812648       -0.420022284877923       -0.242510415132430       -0.598915094748072
Se         11.614797821744261        2.872843303579971       11.750437954667847        0.238045949609341        0.137437352424823       -0.475865899149874
Mo          9.933443597611834        3.818589204346238       10.093597103553503       -0.005952106476589       -0.003428567596774       -0.040501577746485
Se          9.912031905850942        5.722705485927302        8.411451525812648       -0.420041825270676       -0.242511186463722       -0.598918694294105
Se          9.955077027716028        5.747557441445635       11.750437954667847        0.238051863149253        0.137439409308271       -0.475864356487289
Mo          8.273725459132622        6.693304669986414       10.093597103553503       -0.005945164494953       -0.003440394676598       -0.040501577746485
Se          8.252313767371728        8.597419623792968        8.411451525812648       -0.420031283743007       -0.242494731396141       -0.598915094748072
Se          8.295358889236814        8.622271579311299       11.750437954667847        0.238047235161496        0.137435295541376       -0.475865899149874
Mo          6.614007320653410        9.568020135626588       10.093597103553503       -0.005951335145296       -0.003393600578164       -0.040509033948983
Se          6.592595628892516       11.472137744982163        8.411451525812648       -0.420041311049814       -0.242510929353291       -0.598891183477993
Se          6.635640750757602       11.496988372725985       11.750437954667847        0.238054691363994        0.137440951970857       -0.475886467984351
