# total energy = -38122.037261872414 eV 

 CRYSTAL
 PRIMVEC
       13.277745107833699        0.000000000000000        0.000000000000000
       -6.638872553916849       11.498859207011680        0.000000000000000
        0.000000000000000        0.000000000000000       20.000015178772852
 PRIMCOORD
48 1
Mo          1.583546370344592        0.966104667340109       10.000007589386426        1.737790633757719       -0.339354401386917        0.000000000000000
Se          1.606350897567296        2.902900135180574        8.364040681356107        0.076259982262728       -0.198324959131233       -0.242165115823658
Se          1.606350897567296        2.902900135180574       11.635978480740278        0.076259982262728       -0.198324959131233        0.242165115823658
Mo         -0.058868210710091        3.884709719434229       10.000007589386426       -0.325348824881551       -0.292740023144496        0.000000000000000
Se         -0.043714320218521        5.777784228183618        8.284512299258225        0.138669939830817       -0.116630947910289        0.434510200551759
Se         -0.043714320218521        5.777784228183618       11.715508190612669        0.138669939830817       -0.116630947910289       -0.434510200551759
Mo         -1.669389648015758        6.741299735227700       10.000007589386426       -0.408997132488178       -0.431665530743682        0.000000000000000
Se         -1.675996653981417        8.612663802951271        8.248128622113740       -0.002885550366599        0.031678061977000        0.672898878365563
Se         -1.675996653981417        8.612663802951271       11.751887884433623       -0.002885550366599        0.031678061977000       -0.672898878365563
Mo         -3.294163416920174        9.552875539556593       10.000007589386426       -0.268019626539547       -0.252203221268970        0.000000000000000
Se         -3.316228373740372       11.444898450893442        8.289016110398803       -0.305552093029373        0.466383666456285        0.764626881264924
Se         -3.316228373740372       11.444898450893442       11.710997740599538       -0.305552093029373        0.466383666456285       -0.764626881264924
Mo          4.995308120135828        0.955486454577375       10.000007589386426       -1.515841339788693        0.349722379515143        0.000000000000000
Se          4.977276942279389        2.834741486218531        8.264700575782827       -0.062634157863881        0.085802121686730        0.471657772726447
Se          4.977276942279389        2.834741486218531       11.735318586313557       -0.062634157863881        0.085802121686730       -0.471657772726447
Mo          3.343326923730950        3.768115184093319       10.000007589386426       -0.136725927862373        0.226781941629240        0.000000000000000
Se          3.321871415411201        5.686478486175090        8.337617968591516       -0.086030178638986        0.156943292379592       -0.060665206183634
Se          3.321871415411201        5.686478486175090       11.662398537955845       -0.086030178638986        0.156943292379592        0.060665206183634
Mo          1.645617173174693        6.628085713791245       10.000007589386426       -0.168421730459109        0.155537412543134        0.000000000000000
Se          1.640963323514397        8.583848440518251        8.403872588905097        0.021406500260382        0.089210634669889       -0.585426310208923
Se          1.640963323514397        8.583848440518251       11.596138606544223        0.021406500260382        0.089210634669889        0.585426310208923
Mo         -0.062188974761561        9.549225487426449       10.000007589386426       -0.089711742899819        0.046662715003440        0.000000000000000
Se         -0.045571876759107       11.505597662653905        8.401323261844393        0.265119677988815       -0.543114160807659       -1.277144643678607
Se         -0.045571876759107       11.505597662653905       11.598687933604927        0.265119677988815       -0.543114160807659        1.277144643678607
Mo          8.253264453921449        0.901331843380564       10.000007589386426        1.221663812224732        0.277735572614873        0.000000000000000
Se          8.262423442496834        2.862854455935347        8.412132674136680        0.004496604326957        0.039078214400723       -0.663123539780685
Se          8.262423442496834        2.862854455935347       11.587878521312639        0.004496604326957        0.039078214400723        0.663123539780685
Mo          6.562706096880272        3.840778971970450       10.000007589386426       -0.041342328855705       -0.164203576728875        0.000000000000000
Se          6.585507968553955        5.777599667526620        8.364088481238495        0.117508980031997       -0.136290125681906       -0.254772525805495
Se          6.585507968553955        5.777599667526620       11.635928025308868        0.117508980031997       -0.136290125681906        0.254772525805495
Mo          4.920262304786352        6.759414562878318       10.000007589386426        0.133389405799881       -0.287510396978889        0.000000000000000
Se          4.935426817474008        8.652514299343412        8.284554788042570        0.044807663244106       -0.139083887624654        0.347524085330485
Se          4.935426817474008        8.652514299343412       11.715457735181259        0.044807663244106       -0.139083887624654       -0.347524085330485
Mo          3.309732900833620        9.616044411907112       10.000007589386426        0.328300195518474       -0.068662111917602        0.000000000000000
Se          3.303141828162091       11.487408479630684        8.248127294339229       -0.072645523824375        0.257729295761468        0.902506463630988
Se          3.303141828162091       11.487408479630684       11.751887884433623       -0.072645523824375        0.257729295761468       -0.902506463630988
Mo         11.587938271165624        1.006696061909268       10.000007589386426       -0.594386608727676       -0.639561168556753        0.000000000000000
Se         11.590368098520358        2.881827025919931        8.253530008823606        0.115095227306199        0.041736993367220        0.736193038705703
Se         11.590368098520358        2.881827025919931       11.746487825498267        0.115095227306199        0.041736993367220       -0.736193038705703
Mo          9.974442618955804        3.830243081227384       10.000007589386426        0.147924372682582        0.052197274140159        0.000000000000000
Se          9.956420735520940        5.709482179574411        8.264670036969079        0.070203746061603        0.158782917513069        0.725153231021394
Se          9.956420735520940        5.709482179574411       11.735347797352794        0.070203746061603        0.158782917513069       -0.725153231021394
Mo          8.322493289139185        6.642859860772732       10.000007589386426       -0.150289788647360        0.309764333219695        0.000000000000000
Se          8.301032469721392        8.561193951815264        8.337567513160108        0.121588551239947        0.107894078356035        0.074399531184344
Se          8.301032469721392        8.561193951815264       11.662447665612744        0.121588551239947        0.107894078356035       -0.074399531184344
Mo          6.624803455200589        9.502789229460824       10.000007589386426       -0.262678928667767        0.309709311587471        0.000000000000000
Se          6.620136327795185       11.458538678442721        8.403848688963903       -0.249061331802711        0.072099678379459       -0.791054234020978
Se          6.620136327795185       11.458538678442721       11.596167817583460       -0.249061331802711        0.072099678379459        0.791054234020978
