# total energy = -9529.74848942418 eV 

 CRYSTAL
 PRIMVEC
        6.705204922078999        0.000000000000000        0.000000000000000
       -3.352602461039500        5.806875092643465        0.000000000000000
        0.000000000000000        0.000000000000000       20.000050559404965
 PRIMCOORD
12 1
Se          3.350545974689898        5.842114967631943        8.389914479571036       -0.334795833446100       -0.221297776136987        0.745884045069228
Se         -0.119213849871119        5.841481325766807        8.507399057092751        0.379463628615766        0.463914892098263       -2.024340466166563
Se          4.947905486621027        2.930761256379204        8.176131089999407       -0.032928132892299       -0.222193034657570        1.771168709904188
Se          1.662803653011605        2.878282970056553        8.387052027589800       -0.010220139630428       -0.431692270228502        0.125330793562485
Se          3.285289579347241        5.771487032626209       11.780250481309535       -0.310602513224606       -0.131356433622326       -0.278075472604595
Se         -0.025985351155025        5.805541427384464       11.659149786773343        0.480753568442313       -1.237885166424061        1.354017320098299
Se          4.983760899421353        2.857751632585147       11.666233165253027        0.250655673585057        0.661791450637912       -0.450535636602701
Se          1.658111350607134        2.832702998557737       11.792791896595793       -0.472811684340570        0.829072125004446       -0.693398035915107
Mo          1.655098031515152        0.908460723552303       10.196753980554805       -1.493940416169587        1.244868028618345       -1.911840768660845
Mo          4.948140839313792        0.944715766565984       10.059740493697534        1.162771125352096        0.709182302381814       -0.944548904190182
Mo         -0.034203250307525        3.887823987288705        9.885509096399772       -0.506718636643512       -1.481163570413751        2.738317878085672
Mo          3.263755813739984        3.867408649862451       10.061685673645430        0.888373360351869       -0.183240804368014       -0.431979205469446
