# total energy = -38122.19479367873 eV 

 CRYSTAL
 PRIMVEC
       13.277745107833699        0.000000000000000        0.000000000000000
       -6.638872553916849       11.498859207011680        0.000000000000000
        0.000000000000000        0.000000000000000       20.000015178772852
 PRIMCOORD
48 1
Mo          1.634851577441262        0.943875066480574       10.000007589386426       -0.076214730826880       -0.044002650484788        0.000000000000000
Se          1.680766020024151        2.781084790463264        8.330514374958828       -0.362909830629213        0.678011262174655       -0.084428894875004
Se          1.589161528750695        2.939748533403834       11.669498148265003        0.405739543327989       -0.653303463980822        0.084430694648020
Mo         -0.024865233263440        3.818589204346238       10.000007589386426       -0.076201618194902       -0.044008306914269       -0.000001799773017
Se          0.021047881544938        5.655798928328928        8.330514374958828       -0.362909830629213        0.678014861720688       -0.084436865298363
Se         -0.070556609728517        5.814463999044008       11.669498148265003        0.405721288487391       -0.653294465115739        0.084435579746209
Mo         -1.684584699517163        6.693304669986414       10.000007589386426       -0.076195447544559       -0.043991337625826        0.000000000000000
Se         -1.638670256934274        8.530514393969103        8.330514374958828       -0.362908802187490        0.678012033505948       -0.084435579746209
Se         -1.730274748207730        8.689179464684184       11.669498148265003        0.405723088260407       -0.653296521999186        0.084436865298363
Mo         -3.344301510221865        9.568020135626588       10.000007589386426       -0.076212931053864       -0.043988509411086        0.000001799773017
Se         -3.298388395413486       11.405228531834769        8.330514374958828       -0.362907773745766        0.678032345229993       -0.084430694648020
Se         -3.389992886686942       11.563897585873381       11.669498148265003        0.405720260045667       -0.653294722226170        0.084428894875004
Mo          4.954287854399686        0.943875066480574       10.000007589386426       -0.049164399496624       -0.028419701485518       -0.000009255975514
Se          4.911254682505197        2.935146466949459        8.330514374958828        0.420208947050796       -0.632783994707232       -0.069049063116188
Se          4.997545420186497        2.785686856917639       11.669498148265003       -0.337902498783319        0.680303658777042        0.069049063116188
Mo          3.294569715920474        3.818589204346238       10.000007589386426       -0.049194481417045       -0.028367765178466        0.000009255975514
Se          3.251536544025985        5.809861932589634        8.330514374958828        0.420239543192079       -0.632799935553952       -0.069042635355414
Se          3.337827281707285        5.660402322557815       11.669498148265003       -0.337876273519361        0.680283347052997        0.069034150711192
Mo          1.634851577441262        6.693304669986414       10.000007589386426       -0.049188567877134       -0.028386534239925        0.000002828214740
Se          1.591818405546772        8.684576070455298        8.330514374958828        0.420215631922001       -0.632778595388182       -0.069047520453602
Se          1.678109143228073        8.535116460423479       11.669498148265003       -0.337894528359959        0.680306744102214        0.069047520453602
Mo         -0.024865233263440        9.568020135626588       10.000007589386426       -0.049177769239033       -0.028405303301385       -0.000002828214740
Se         -0.067899732932440       11.559287552771940        8.330514374958828        0.420204576173470       -0.632751084572070       -0.069034150711192
Se          0.018391004748860       11.409827942740122       11.669498148265003       -0.337901213231164        0.680338111574790        0.069042635355414
Mo          8.273725459132622        0.943875066480574       10.000007589386426        0.001395595419219        0.000779558826653        0.000006170650343
Se          8.278755068979468        2.851898988446874        8.330514374958828       -0.046127153975762        0.069104598969274       -0.006920127249131
Se          8.268918915403585        2.868935663194735       11.669498148265003        0.036783503804457       -0.074500832694140        0.006920898580424
Mo          6.614007320653410        3.818589204346238       10.000007589386426        0.001403822953010        0.000810412078368        0.000000000000000
Se          6.619036930500257        5.726614454087049        8.330514374958828       -0.046127925307055        0.069105884521429       -0.006920898580424
Se          6.609200776924374        5.743649801060400       11.669498148265003        0.036782989583595       -0.074499547141985        0.006920127249131
Mo          4.954287854399686        6.693304669986414       10.000007589386426        0.001372712590864        0.000818896722589       -0.000006170650343
Se          4.959318792021044        8.601328591952713        8.330514374958828       -0.046110698908181        0.069097656987638       -0.006914727930081
Se          4.949482638445161        8.618363938926063       11.669498148265003        0.036775019160236       -0.074493376491642        0.006912671046634
Mo          3.294569715920474        9.568020135626588       10.000007589386426        0.001411536265938        0.000815040066125        0.000000000000000
Se          3.299600653541832       11.476048040916421        8.330514374958828       -0.046125611313177        0.069094828772898       -0.006912671046634
Se          3.289764499965949       11.493078076791727       11.669498148265003        0.036785046467043       -0.074482063632680        0.006914727930081
Mo         11.593157752767514        0.943875066480574       10.000007589386426       -0.043076024491629       -0.024916571863768        0.000017226398874
Se         11.630638171657907        2.795699604503457        8.330514374958828       -0.271285186123095        0.529108070081431       -0.053574614718781
Se         11.555908366641997        2.925133719363641       11.669498148265003        0.322585144859225       -0.499493319312838        0.053575643160504
Mo          9.933443597611834        3.818589204346238       10.000007589386426       -0.043110734399808       -0.024887775495501       -0.000002056883448
Se          9.970918705404184        5.670415070143632        8.330514374958828       -0.271283643460510        0.529106784529276       -0.053576414491797
Se          9.896191555937296        5.799847857229306       11.669498148265003        0.322577945767158       -0.499492033760683        0.053576414491797
Mo          8.273725459132622        6.693304669986414       10.000007589386426       -0.043108677516360       -0.024891117931103        0.000002056883448
Se          8.311200566924972        8.545130535783807        8.330514374958828       -0.271281329466631        0.529113469400481       -0.053575643160504
Se          8.236473417458082        8.674563322869481       11.669498148265003        0.322578202877589       -0.499493833533700        0.053574614718781
Mo          6.614007320653410        9.568020135626588       10.000007589386426       -0.043116390829289       -0.024846637826548       -0.000017226398874
Se          6.651482428445759       11.419848656973004        8.330514374958828       -0.271277987031029        0.529091615013850       -0.053548389454823
Se          6.576755278978871       11.549278788509657       11.669498148265003        0.322567661349920       -0.499479435349566        0.053548389454823
