# total energy = -9424.422300067563 eV 

 CRYSTAL
 PRIMVEC
        5.709346257185899        0.000000000000000        0.000000000000000
       -2.854673128592950        4.944436592379419        0.000000000000000
        0.000000000000000        0.000000000000000       19.999925579116063
 PRIMCOORD
12 1
Se          2.844584142821876        4.928745025126168        8.952578651200273        1.041773156772051        1.105090714161408      -38.359672764433611
Se         -0.033613205154556        4.941049237245030        8.975329254165908       -0.235668706564739       -0.356690329304432      -38.974887117841597
Se          4.254478083368022        2.468329660453940        8.949961486875978        1.235562687901252       -0.291971777176805      -37.937092230767696
Se          1.396845229675348        2.456229842931086        8.965141496704584        0.273861689751687       -1.182461927706720      -39.408580735664643
Se          2.835730088646232        4.933076135196869       11.044779434903933       -0.747152885045986       -1.046933106010870       38.230536222272143
Se         -0.013126357979896        4.931974231369233       11.040432338663713        0.854170473942899       -0.349183733162295       38.738883653495748
Se          4.255313360725449        2.452901294063146       11.063874343461093       -0.049679648800256        0.392446934047658       36.637385889662426
Se          1.397609711139185        2.456360586960375       11.030885740787072        1.379271992178771        1.304400406243196       39.654595308860543
Mo          1.409977867936127        0.814848745583460       10.020503304587509       -1.050698488272193       -0.577402922100568       -0.314359153731277
Mo          4.269070601466764        0.809996372199478        9.979079713753123        0.450807659438651        0.990518192361338       -0.218469047175630
Mo         -0.011241702780399        3.280110203358788        9.992433303714055       -3.085956120447500        0.213212167304341        0.278385033563464
Mo          2.833574810434145        3.283745344120739        9.972211370205727       -0.066292067965066       -0.201024361545821        1.673275455980976
