# total energy = -9383.203078987137 eV 

 CRYSTAL
 PRIMVEC
        5.443805113637699        0.000000000000000        0.000000000000000
       -2.721902556818850        4.714471323538089        0.000000000000000
        0.000000000000000        0.000000000000000       19.999957500357748
 PRIMCOORD
12 1
Se          2.707785137017653        4.700631537797688        9.004355789140561        0.651864416898772        2.196132914375481      -53.204784246681356
Se         -0.015280760953981        4.696847548863198        8.943921931052024       -0.949672600858237       -0.450876822144577      -46.601643562775287
Se          4.077707261873842        2.336410385306823        8.999079108843912        0.288884652232339        0.554949211054910      -51.157563780374609
Se          1.337442206026180        2.347563653223644        8.926394511727645       -2.683555413175883       -0.387104693513293      -46.472482338012455
Se          2.695065141989127        4.699233568644505       11.008317351201622        0.315047181244510       -1.056122489923602       51.413077298442118
Se         -0.008465661332218        4.693868698705016       11.053818307482940       -0.241034344148322        2.358946552114618       47.646660167633826
Se          4.054890097120540        2.342064321297848       11.012506903617076       -3.046478870657937       -0.293058840078880       50.104644629310265
Se          1.339142850743681        2.341742592415632       10.997220154477471        1.979997144360760        1.135858348102400       49.953360594626403
Mo          1.340914264927659        0.775941471960531       10.006926134264898        4.439159171810967       -0.433751210559583       -0.942878971941135
Mo          4.064593135355088        0.767285277449336        9.991680758044156       -3.780158140680201       -1.095872019659547        0.764608626424326
Mo         -0.031827206596883        3.138248582573441       10.028087837883142        3.226779874358421        1.253857123505365       -2.445236926509730
Mo          2.691954551747195        3.139882268488043        9.963080639118639       -0.200833071385191       -3.782957816162861        0.942238252747197
