# total energy = -38122.8115388836 eV 

 CRYSTAL
 PRIMVEC
       53.110927513609894        0.000000000000000        0.000000000000000
       -1.659716484800309        2.874735173529163        0.000000000000000
        0.000000000000000        0.000000000000000       19.999981973800079
 PRIMCOORD
48 1
Mo          1.605145006780075        0.995325337068806        9.999996297992791       -0.002561077002734       -0.003930190047565        0.000000000000000
Se          1.598415852264101        2.923714070882214        8.330507402529976        0.098998057445021       -0.172178885186642        0.000920455342816
Se          1.598415852264101        2.923714070882214       11.669490504548355        0.098998057445021       -0.172178885186642       -0.000920455342816
Mo          4.955897490335469        0.941077835706405        9.999996297992791       -0.230657110044581        0.397930071098187        0.000000000000000
Se          4.947989273228693        2.871511340229087        8.330507402529976        0.122542173828356       -0.209429044423281        0.000547130997070
Se          4.947989273228693        2.871511340229087       11.669490504548355        0.122542173828356       -0.209429044423281       -0.000547130997070
Mo          8.305911731998425        0.888115618789833        9.999996297992791       -0.219550196537792        0.382995297495352        0.000000000000000
Se          8.300499728484787        2.814215271627404        8.330507402529976        0.079789080038005       -0.133398918885826        0.000288220793100
Se          8.300499728484787        2.814215271627404       11.669490504548355        0.079789080038005       -0.133398918885826       -0.000288220793100
Mo         11.641150513627093        0.860747557842070        9.999996297992791       -0.095066581845301        0.166332193986745        0.000000000000000
Se         11.640768114948994        2.778126396381906        8.330507402529976       -0.001052610104326        0.002444091756650        0.000086646215232
Se         11.640768114948994        2.778126396381906       11.669490504548355       -0.001052610104326        0.002444091756650       -0.000086646215232
Mo         14.954358882523117        0.871529076127333        9.999996297992791        0.068415028793455       -0.124092035506147        0.000000000000000
Se         14.959239776761615        2.779804701691337        8.330507402529976       -0.080919080382049        0.137109279514926        0.000252739553628
Se         14.959239776761615        2.779804701691337       11.669490504548355       -0.080919080382049        0.137109279514926       -0.000252739553628
Mo         18.248388895493974        0.915515546294105        9.999996297992791        0.199421792229683       -0.358522241124981        0.000000000000000
Se         18.256339601342763        2.818480079106747        8.330507402529976       -0.121114439605267        0.209908812487442        0.000621178801185
Se         18.256339601342763        2.818480079106747       11.669490504548355       -0.121114439605267        0.209908812487442       -0.000621178801185
Mo         21.534919645499912        0.972519504794462        9.999996297992791        0.245591369426553       -0.425897258225226        0.000000000000000
Se         21.542339242073563        2.876402856653090        8.330507402529976       -0.105187476849381        0.186694054566160        0.000604723733604
Se         21.542339242073563        2.876402856653090       11.669490504548355       -0.105187476849381        0.186694054566160       -0.000604723733604
Mo         24.829029324862042        1.016378508735201        9.999996297992791        0.176666490648516       -0.295329125184205        0.000000000000000
Se         24.832555890448944        2.926985704017052        8.330507402529976       -0.042433248414244        0.076841823167977        0.000116728135653
Se         24.832555890448944        2.926985704017052       11.669490504548355       -0.042433248414244        0.076841823167977       -0.000116728135653
Mo         28.142354537798592        1.026952894403161        9.999996297992791        0.015872455344524       -0.034573896760837        0.000000000000000
Se         28.140426611129850        2.947019145875186        8.330507402529976        0.038981283768253       -0.069006897005511        0.000055278742655
Se         28.140426611129850        2.947019145875186       11.669490504548355        0.038981283768253       -0.069006897005511       -0.000055278742655
Mo         31.477694230189538        0.999404256301851        9.999996297992791       -0.144304514925178        0.243446811321965        0.000000000000000
Se         31.471246563589389        2.927299058489382        8.330507402529976        0.103953089670370       -0.182313921264425        0.000405463149615
Se         31.471246563589389        2.927299058489382       11.669490504548355        0.103953089670370       -0.182313921264425       -0.000405463149615
Mo         34.827745649501750        0.946362372994009        9.999996297992791       -0.238081430848813        0.410118133967138        0.000000000000000
Se         34.819784321467466        2.876880855000712        8.330507402529976        0.123127871390069       -0.210902030082218        0.000708596347710
Se         34.819784321467466        2.876880855000712       11.669490504548355        0.123127871390069       -0.210902030082218       -0.000708596347710
Mo         38.178466266500635        0.892183915837376        9.999996297992791       -0.226438699203916        0.394068272425255        0.000000000000000
Se         38.172693108679908        2.818910277619608        8.330507402529976        0.085499502709497       -0.143231593096806        0.000329872682914
Se         38.172693108679908        2.818910277619608       11.669490504548355        0.085499502709497       -0.143231593096806       -0.000329872682914
Mo         41.515484264201014        0.861724798908321        9.999996297992791       -0.108593418728231        0.188568903828677        0.000000000000000
Se         41.514602622804290        2.779985278844883        8.330507402529976        0.006828595935712       -0.010801466314815        0.000041137668953
Se         41.514602622804290        2.779985278844883       11.669490504548355        0.006828595935712       -0.010801466314815       -0.000041137668953
Mo         44.830732092713561        0.868974440513928        9.999996297992791        0.054544949485202       -0.097967044616895        0.000000000000000
Se         44.835193410624704        2.777977685784868        8.330507402529976       -0.075019167322943        0.126884254786310        0.000242198025959
Se         44.835193410624704        2.777977685784868       11.669490504548355       -0.075019167322943        0.126884254786310       -0.000242198025959
Mo         48.126132367614268        0.910597474406344        9.999996297992791        0.195307254003124       -0.344603310834846        0.000000000000000
Se         48.133944985051521        2.813801006392798        8.330507402529976       -0.119363260460039        0.206700331419565        0.000152723595987
Se         48.133944985051521        2.813801006392798       11.669490504548355       -0.119363260460039        0.206700331419565       -0.000152723595987
Mo         51.412710917454966        0.967495211051675        9.999996297992791        0.264117975749817       -0.458280059893471        0.000000000000000
Se         51.420342957738676        2.871028030788713        8.330507402529976       -0.091972257808768        0.164548104706354        0.000061449392998
Se         51.420342957738676        2.871028030788713       11.669490504548355       -0.091972257808768        0.164548104706354       -0.000061449392998
