# total energy = -9527.228644345147 eV 

 CRYSTAL
 PRIMVEC
        6.240481462007200        0.000000000000000        0.000000000000000
       -3.120240731003600        5.404412958134786        0.000000000000000
        0.000000000000000        0.000000000000000       20.000031670846408
 PRIMCOORD
12 1
Se          3.076965488257164        5.349120420236963        8.232855640504537        0.319679025658150        0.493319326534336        1.303885928270856
Se          0.022200512801091        5.351107389534466        8.288824646592840       -0.181850608267845        0.754421654039491        1.069832132322940
Se          4.606850721075539        2.741992668628420        8.466076161798961        0.735447418455936       -1.624846649427313       -1.833679197650780
Se          1.489441920559399        2.730488341053209        8.372156915795752        0.885346142137815       -1.713104689950517       -1.473706853695218
Se          3.148890781395675        5.356592772739570       11.674845610918888       -0.443573086132462       -0.928972640062117        4.349802755526727
Se          0.007431165324958        5.388796153276112       11.796938134530473        0.184931819672400       -0.685754914134132        1.333580126162614
Se          4.664887198672206        2.713255251495876       11.834806000090079        0.144339739054219       -0.167309984955663        0.418128666553946
Se          1.511470196072138        2.682574548436064       11.556123571344932        0.436353939452132        0.199952725269604        6.168372601592055
Mo          1.544936650056590        0.850416618849862       10.192160259638404        1.227209169999552       -0.996562858593071       -6.528412051370096
Mo          4.726656108231300        0.859062181867326       10.185887951720941       -1.619953066594962        0.821883831575830       -3.856063824769075
Mo          0.024557542649291        3.543754125663450       10.028673998441178       -2.865202904203274        2.472410927957275        0.249029450109272
Mo          3.070079116963840        3.551199644095770       10.066714101289136        1.177272153657910        1.374562757525415       -1.200769990163673
