# total energy = -9522.867068845471 eV 

 CRYSTAL
 PRIMVEC
        6.638793177329500        0.000000000000000        0.000000000000000
       -3.319396588664750        5.749360861396781        0.000000000000000
        0.000000000000000        0.000000000000000       19.999981854470612
 PRIMCOORD
12 1
Se          3.302976861499261        5.726326240709400        8.656279271764284        0.097368748644065       -0.136492985811929       -8.276824688361824
Se         -0.024201720527955        5.728455301681370        8.607341407857598        0.018097746124432       -0.345352787741077       -6.905597938678040
Se          4.947306349626118        2.871602686181380        8.652078907320988        0.097492932982216        0.173680152992984       -7.695382047170104
Se          1.622914732974745        2.858603929140169        8.614492715868218        0.435839975700654        0.111498766598013       -6.824510450963715
Se          3.296313504787175        5.725105366644089       11.340277629306144       -0.041345928401739        0.714381075295707        7.962529555127855
Se         -0.024586106652922        5.734926797270631       11.407226539102924        0.232240910299258        0.118899947463459        6.137916842603811
Se          4.959289371311198        2.853973370898982       11.352372846595921        0.084404983604925       -0.361433759645106        7.585709535963159
Se          1.640169620321943        2.863764263076907       11.367060512621444        0.034097985353141       -0.488799068047730        7.310317267816002
Mo          1.647393955057513        0.932642229086004        9.983068643426293        0.341352920766724        0.438540920777828        0.560048739342455
Mo          4.956883472663733        0.935429858341165        9.964507241581797       -0.635203660972942       -0.044303212578573        0.911194996424222
Mo         -0.010336600977102        3.810658653356002       10.011388407362144       -0.214296401991675        0.736618813579363       -0.119921447205640
Mo          3.297611388853343        3.829478304255096       10.023520801893715       -0.450050212109060       -0.917237862882938       -0.645480364898180
