# total energy = -9507.56180412111 eV 

 CRYSTAL
 PRIMVEC
        9.161539876487199        0.000000000000000        0.000000000000000
       -4.580769938243599        7.934122571534827        0.000000000000000
        0.000000000000000        0.000000000000000       19.999989688886860
 PRIMCOORD
12 1
Se          4.531864722228923        7.911783988853988        8.453170529391196       -0.139486522559528        0.040305402487667        1.439096704363617
Se         -0.013086343559574        7.909389162330274        8.485409988216555        0.131596831875269       -0.079966743345794        1.490244967945483
Se          6.852692572206302        3.933995456045195        8.454282740332202        0.120236150373128       -0.043100964203432        1.518076400764978
Se          2.242427056330352        3.950378121652330        8.477709713950368       -0.051694109026782        0.065406065419998        1.466022851355722
Se          4.546123742892688        7.909511010810631       11.505238594612241        0.173224296198902       -0.037835856798353       -1.264791001692121
Se         -0.033036512794613        7.903060370583596       11.571801762584856       -0.174829693729780        0.058842293228169       -1.352849524520905
Se          6.826686625112905        3.935504361662853       11.547430234205425       -0.140903715254947        0.076613509105290       -1.329168368277872
Se          2.244645065134450        3.955201672397300       11.572545679622829        0.118451803982306       -0.102613287214668       -1.372317412131892
Mo          2.263478442658545        1.294576889170949       10.016546998538281       -0.031602728620731        0.005368208687892        0.305067182756594
Mo          6.835059356406028        1.300430196998037        9.960340951396031       -0.016021065173616       -0.005018538501794       -0.552702837219664
Mo         -0.056735584147110        5.282950665153034        9.963740798844196        0.032407741380048        0.004237951233417       -0.447882771176116
Mo          4.551588601429012        5.256910820362095       10.002980590289177       -0.021378989444269        0.017761702791175        0.101204064942608
