# total energy = -38121.41020572532 eV 

 CRYSTAL
 PRIMVEC
       13.277745107833699        0.000000000000000        0.000000000000000
       -6.638872553916849       11.498859207011680        0.000000000000000
        0.000000000000000        0.000000000000000       20.000015178772852
 PRIMCOORD
48 1
Mo          1.634851577441262        0.943875066480574        9.987037887965094       -0.018648219557105       -0.008547122056209        0.401782356685173
Se          1.663222135413170        2.849888737837548        8.322158689962466       -0.630916087426350        0.094725653413856        0.096619528848264
Se          1.606705413361676        2.870944586029550       11.661147774366688        0.751029596123913       -0.226704037168661        0.351190994296754
Mo         -0.024865233263440        3.818589204346238       10.098317341939337       -0.131587061678892       -0.075891285904740       -2.726590299998560
Se         -0.008797833908451        5.762367438338913        8.318580337655906       -0.518722865554331       -0.577655661654196        0.158878305482953
Se         -0.040710894275129        5.707895489034025       11.657568094285615        0.427773393039898        0.718998778635644        0.464494161899203
Mo         -1.684584699517163        6.693304669986414       10.023596831345003       -0.018662874851670       -0.013679303368485       -0.654291539366979
Se         -1.711007412281752        8.623316537851286        8.337580790905216        0.696567436197479       -0.289121450939248       -0.312390459161461
Se         -1.657937592860252        8.596377320802002       11.676568547534925       -0.574086454651690        0.175285550523862       -0.073970670985512
Mo         -3.344301510221865        9.568020135626588        9.904244508345197       -0.122010726567574       -0.068509902542477        2.654698366847311
Se         -3.363013836402335       11.458777677854661        8.343211882605448        0.406781097683784        0.702141076119703       -0.438054982063324
Se         -3.325367445698094       11.510337817657401       11.682198311460647       -0.496413650570869       -0.564967261886608       -0.154522854782589
Mo          4.954287854399686        0.943875066480574       10.077617337316225       -0.040055748259211        0.007531021633078       -2.172616565918689
Se          4.943824991254713        2.887209823786647        8.328671423937859        0.244417403198817       -0.550215808021044       -0.053264025318188
Se          4.964975111436981        2.833623500080451       11.667657852793058       -0.184231193748050        0.644913693508357        0.127609049091169
Mo          3.294569715920474        3.818589204346238        9.941229667343068       -0.008884193831190       -0.026565935278339        1.620737510519803
Se          3.264228740574563        5.723622978114253        8.344489201684821        0.799424206990260        0.286276266910309       -0.459066046480898
Se          3.325135085158707        5.746639949258683       11.683478286089041       -0.794214635438267       -0.363211678275154       -0.128968649050055
Mo          1.634851577441262        6.693304669986414        9.916048423746060       -0.041373696328282       -0.003127748392557        2.322027808223479
Se          1.642248609240835        8.581810306644197        8.333868333373065       -0.107789691521068        0.691376119486083       -0.167298929207132
Se          1.627677611759499        8.637883552009090       11.672858745551796        0.145534788337294       -0.568924962750285        0.019576388212850
Mo         -0.024865233263440        9.568020135626588       10.049716811521133       -0.004310970595808       -0.020817974483928       -1.362365181570518
Se          0.006486178485177       11.493038243556404        8.316902030674274       -0.795014248878534       -0.326515592017221        0.076166908286723
Se         -0.055994906668756       11.476078579730167       11.655888459529475        0.787354157809117        0.228497896645428        0.380548377523962
Mo          8.273725459132622        0.943875066480574        9.900295706950127       -0.044094438908639       -0.035347284937147        2.750183267363775
Se          8.260932351721225        2.832043448412619        8.341546853368925        0.350741051042584        0.768459626459158       -0.361116742483739
Se          8.286740304887321        2.888791203228990       11.680527971126082       -0.425161922392697       -0.596782620833738       -0.079432210759841
Mo          6.614007320653410        3.818589204346238        9.987037887965094       -0.006327230595351        0.001528007291161        0.358724844144572
Se          6.642376550850806        5.724604203477723        8.322158689962466       -0.628031051280614        0.116340927344172        0.051143892704540
Se          6.585859828799312        5.745658723895215       11.661147774366688        0.767193357586708       -0.242143004326596        0.289876584274960
Mo          4.954287854399686        6.693304669986414       10.098317341939337       -0.045479235689758       -0.032879281910418       -2.732276554289542
Se          4.970357909303697        8.637082903979088        8.318580337655906       -0.503567491201737       -0.583588227738032        0.092684967923373
Se          4.938443521162508        8.582609626899689       11.657568094285615        0.425267851890250        0.736082481220393        0.391484312594166
Mo          3.294569715920474        9.568020135626588       10.023596831345003       -0.009515914160044       -0.000130612098925       -0.658357740832519
Se          3.268147003155885       11.498028020167929        8.337580790905216        0.773640658753315       -0.291126655190259       -0.218021417915338
Se          3.321216822577385       11.471088803118645       11.676568547534925       -0.643020075184379        0.169697512417504        0.035550659288032
Mo         11.593157752767514        0.943875066480574       10.067167751916358        0.006154452385750       -0.030382482515422       -1.912270143080539
Se         11.622587874799027        2.874820359826527        8.316340382056215       -0.178906950943851       -0.056683851160309        0.937916226402857
Se         11.563958663500877        2.846014291815082       11.655328138685924        0.234294708421720        0.047003643434885        1.182678157579153
Mo          9.933443597611834        3.818589204346238       10.077617337316225       -0.020710245213358        0.005423744540978       -2.302672534981249
Se          9.922979406692351        5.761925289426822        8.328671423937859        0.371950604712855       -0.533582820021757        0.084064826504773
Se          9.944129526874619        5.708337637946116       11.667657852793058       -0.318254376760233        0.634156193077235        0.278578380607541
Mo          8.273725459132622        6.693304669986414        9.941229667343068        0.001869192833037       -0.018614538090650        1.727508016292569
Se          8.243383156012200        8.598338443754429        8.344489201684821        0.287987079717878       -0.029364068098413       -1.154939798735663
Se          8.304289500596344        8.621355414898858       11.683478286089041       -0.206292811386502       -0.015328409672625       -0.913841176979603
Mo          6.614007320653410        9.568020135626588        9.916048423746060       -0.024686200917633        0.002437149775014        2.469110658465548
Se          6.621404352452983       11.456528427833394        8.333868333373065       -0.278865572958917        0.710176291307883       -0.252226104097325
Se          6.606832027197136       11.512597689874754       11.672858745551796        0.341855057438377       -0.590642566632121       -0.035280179114668
