# total energy = -9475.72084064666 eV 

 CRYSTAL
 PRIMVEC
        6.638793177329500        0.000000000000000        0.000000000000000
       -3.319396588664750        5.749360861396781        0.000000000000000
        0.000000000000000        0.000000000000000       19.999981854470612
 PRIMCOORD
12 1
Se          3.286387181228433        5.731819842063641        9.042465173562036        0.008530924099059        0.503318608304574      -25.620990938305756
Se         -0.021136589717982        5.739802326980062        9.067997972122045        0.205363871399465       -0.209545515448504      -28.085136794349577
Se          4.953621169696394        2.853478116927953        9.055886821728642        0.170061837898166        0.112399681548076      -24.267993061066189
Se          1.621938166498360        2.869363421242667        9.038907444298305       -0.263768819784581       -0.423559610186991      -23.894085588863344
Se          3.302536045632286        5.726611708816026       10.950377322725677        0.101130788469786        0.336027906631232       25.849527401515825
Se         -0.030286838354295        5.740857895095257       10.940679373652234       -0.085578692722231        0.023256666921528       28.193329120805522
Se          4.965869743108566        2.854473935904552       10.988023263317041       -0.406415486650967        0.267744775488857       24.569028495154992
Se          1.645774089522244        2.858643098019915       10.985736199067452       -0.277872612474572       -0.387248161133765       24.185610251000721
Mo          1.641344686714330        0.938072098025742        9.968809843440026       -0.867171005773665        1.362156407900584       -0.564158392470826
Mo          4.948156779032134        0.939849966838631        9.991375101449767        0.669242253816532        0.251810356530473        0.192447157569190
Mo         -0.025472385542096        3.829027530198355        9.987327429249548        0.265977141276047       -0.805048497667383       -0.095787262383266
Mo          3.286288263210090        3.819871970527501        9.966252580308117        0.480499800446961       -1.031312361778250       -0.461790902828150
