# total energy = -38121.004289655684 eV 

 CRYSTAL
 PRIMVEC
       13.277745107833699        0.000000000000000        0.000000000000000
       -6.638872553916849       11.498859207011680        0.000000000000000
        0.000000000000000        0.000000000000000       20.000015178772852
 PRIMCOORD
48 1
Mo          1.709167116809807        0.943875066480574       10.000007589386426       -1.996729634096826        0.062707177226272        0.000000000000000
Se          1.589818777133533        2.860416661933549        8.330514374958828        0.998376001352160       -0.031405267809758       -0.140642748167529
Se          1.589818777133533        2.860416661933549       11.669498148265003        0.998376001352160       -0.031405267809758        0.140642748167529
Mo          0.049448978330594        3.818589204346238       10.000007589386426       -1.996740175624495        0.062797680097968        0.000000000000000
Se         -0.069900689120191        5.735132127573724        8.330514374958828        0.998377286904314       -0.031399868490708       -0.140641462615374
Se         -0.069900689120191        5.735132127573724       11.669498148265003        0.998377286904314       -0.031399868490708        0.140641462615374
Mo         -1.610269160148618        6.693304669986414       10.000007589386426       -1.996755859360783        0.062790481005902        0.000000000000000
Se         -1.729618827599403        8.609846265439389        8.330514374958828        0.998373430247850       -0.031391126736055       -0.140641719725805
Se         -1.729618827599403        8.609846265439389       11.669498148265003        0.998373430247850       -0.031391126736055        0.140641719725805
Mo         -3.269987298627830        9.568020135626588       10.000007589386426       -1.996752002704319        0.062760913306342        0.000000000000000
Se         -3.389336966078615       11.484557747756032        8.330514374958828        0.998366488266214       -0.031330705784781       -0.140621665112191
Se         -3.389336966078615       11.484557747756032       11.669498148265003        0.998366488266214       -0.031330705784781        0.140621665112191
Mo          5.028603393768232        0.943875066480574       10.000007589386426       -1.996734519195014        0.062710262551444        0.000000000000000
Se          4.909255054091958        2.860416661933549        8.330514374958828        0.998373430247850       -0.031405267809758       -0.140643005277960
Se          4.909255054091958        2.860416661933549       11.669498148265003        0.998373430247850       -0.031405267809758        0.140643005277960
Mo          3.368885255289019        3.818589204346238       10.000007589386426       -1.996748146047855        0.062791766558056        0.000000000000000
Se          3.249536915612745        5.735132127573724        8.330514374958828        0.998373944468712       -0.031400125601139       -0.140640434173650
Se          3.249536915612745        5.735132127573724       11.669498148265003        0.998373944468712       -0.031400125601139        0.140640434173650
Mo          1.709167116809807        6.693304669986414       10.000007589386426       -1.996750717152164        0.062790481005902        0.000000000000000
Se          1.589818777133533        8.609846265439389        8.330514374958828        0.998373944468712       -0.031390869625625       -0.140641462615374
Se          1.589818777133533        8.609846265439389       11.669498148265003        0.998373944468712       -0.031390869625625        0.140641462615374
Mo          0.049448978330594        9.568020135626588       10.000007589386426       -1.996749174489579        0.062763227300220        0.000000000000000
Se         -0.069900689120191       11.484557747756032        8.330514374958828        0.998369830701817       -0.031331734226505       -0.140622693553914
Se         -0.069900689120191       11.484557747756032       11.669498148265003        0.998369830701817       -0.031331734226505        0.140622693553914
Mo          8.348039670726655        0.943875066480574       10.000007589386426       -1.996736318968031        0.062710519661875        0.000000000000000
Se          8.228690003275871        2.860416661933549        8.330514374958828        0.998382686223364       -0.031408867355791       -0.140646861934424
Se          8.228690003275871        2.860416661933549       11.669498148265003        0.998382686223364       -0.031408867355791        0.140646861934424
Mo          6.688321532247443        3.818589204346238       10.000007589386426       -1.996758687575524        0.062793052110211        0.000000000000000
Se          6.568973192571169        5.735132127573724        8.330514374958828        0.998373430247850       -0.031399354269846       -0.140641205504943
Se          6.568973192571169        5.735132127573724       11.669498148265003        0.998373430247850       -0.031399354269846        0.140641205504943
Mo          5.028603393768232        6.693304669986414       10.000007589386426       -1.996748403158286        0.062790481005902        0.000000000000000
Se          4.909255054091958        8.609846265439389        8.330514374958828        0.998372916026988       -0.031390612515194       -0.140641205504943
Se          4.909255054091958        8.609846265439389       11.669498148265003        0.998372916026988       -0.031390612515194        0.140641205504943
Mo          3.368885255289019        9.568020135626588       10.000007589386426       -1.996750460041733        0.062762713079358        0.000000000000000
Se          3.249536915612745       11.484557747756032        8.330514374958828        0.998372144695695       -0.031327877570041       -0.140618322676588
Se          3.249536915612745       11.484557747756032       11.669498148265003        0.998372144695695       -0.031327877570041        0.140618322676588
Mo         11.667478603234102        0.943875066480574       10.000007589386426       -1.996770257544917        0.062710519661875        0.000000000000000
Se         11.548127608008807        2.860416661933549        8.330514374958828        0.998360317615871       -0.031401925374156       -0.140637863069341
Se         11.548127608008807        2.860416661933549       11.669498148265003        0.998360317615871       -0.031401925374156        0.140637863069341
Mo         10.007756481431358        3.818589204346238       10.000007589386426       -1.996728348544671        0.062782510582542        0.000000000000000
Se          9.888408141755084        5.735132127573724        8.330514374958828        0.998381914892072       -0.031402439595017       -0.140643262388391
Se          9.888408141755084        5.735132127573724       11.669498148265003        0.998381914892072       -0.031402439595017        0.140643262388391
Mo          8.348039670726655        6.693304669986414       10.000007589386426       -1.996760487348541        0.062796137435383        0.000000000000000
Se          8.228690003275871        8.609846265439389        8.330514374958828        0.998382943333795       -0.031391898067348       -0.140644547940545
Se          8.228690003275871        8.609846265439389       11.669498148265003        0.998382943333795       -0.031391898067348        0.140644547940545
Mo          6.688321532247443        9.568020135626588       10.000007589386426       -1.996757916244231        0.062767598177547        0.000000000000000
Se          6.568973192571169       11.484557747756032        8.330514374958828        0.998374201579143       -0.031334819551677       -0.140630149756412
Se          6.568973192571169       11.484557747756032       11.669498148265003        0.998374201579143       -0.031334819551677        0.140630149756412
