# total energy = -38120.91885253862 eV 

 CRYSTAL
 PRIMVEC
       13.277745107833699        0.000000000000000        0.000000000000000
       -6.638872553916849       11.498859207011680        0.000000000000000
        0.000000000000000        0.000000000000000       20.000015178772852
 PRIMCOORD
48 1
Mo          1.634851577441262        0.943875066480574        9.947822067789108       -0.063243509585243       -0.036513794962386        1.579744337629333
Se          1.645086063370379        2.866261525330017        8.369637250919059       -0.328387870175429       -0.189599402435942       -1.528242290094475
Se          1.624841485404466        2.854573126311591       11.708627663097790        0.182748437892737        0.105496523587388       -1.160644307867243
Mo         -0.024865233263440        3.818589204346238        9.947822067789108       -0.063226540296800       -0.036516880287558        1.579745366071057
Se         -0.014632075108833        5.740975663195681        8.369637250919059       -0.328391212611031       -0.189596060000339       -1.528253602953436
Se         -0.034876653074747        5.729287264177255       11.708627663097790        0.182741753021532        0.105507065115057       -1.160638394327331
Mo         -1.684584699517163        6.693304669986414        9.947822067789108       -0.063205457241462       -0.036491683465324        1.579745623181488
Se         -1.674350213588045        8.615691128835858        8.369637250919059       -0.328390698390170       -0.189597088442063       -1.528253602953436
Se         -1.694594791553959        8.604002729817431       11.708627663097790        0.182742524352825        0.105505522452471       -1.160638394327331
Mo         -3.344301510221865        9.568020135626588        9.947822067789108       -0.063237853155762       -0.036497597005236        1.579745366071057
Se         -3.334068352067257       11.490407922250544        8.369637250919059       -0.328391726831893       -0.189592717564737       -1.528242290094475
Se         -3.354312930033171       11.478718195457606       11.708627663097790        0.182736867923344        0.105516578201002       -1.160644307867243
Mo          4.954287854399686        0.943875066480574        9.900322262440342       -0.046735477255400       -0.027018963857680        3.859346867861928
Se          4.946519045737093        2.855866378685094        8.382009453810538        0.219822219373741        0.126914336706731       -2.022892420219429
Se          4.962281056954602        2.864966945182004       11.720998538214758       -0.094210918331086       -0.054392740110077       -1.428306293797332
Mo          3.294569715920474        3.818589204346238        9.900322262440342       -0.046766844727976       -0.026964713556749        3.859346867861928
Se          3.286800907257880        5.730580516550758        8.382009453810538        0.219851529962870        0.126894024982686       -2.022877764924864
Se          3.302562918475390        5.739682410822179       11.720998538214758       -0.094186749950576       -0.054405338521193       -1.428314264220692
Mo          1.634851577441262        6.693304669986414        9.900322262440342       -0.046757331642031       -0.026982454176484        3.859362037377355
Se          1.627082768778668        8.605295982190933        8.382009453810538        0.219824533367620        0.126915879369317       -2.022891391777705
Se          1.642844779996177        8.614396548687843       11.720998538214758       -0.094207318785052       -0.054390683226629       -1.428306293797332
Mo         -0.024865233263440        9.568020135626588        9.900322262440342       -0.046746275893500       -0.027001737458806        3.859362037377355
Se         -0.032635369700544       11.480008792282089        8.382009453810538        0.219819134048570        0.126950075056634       -2.022877764924864
Se         -0.016872030708524       11.489108031004486       11.720998538214758       -0.094209889889362       -0.054365486404396       -1.428314264220692
Mo          8.273725459132622        0.943875066480574        9.935005060436515        0.010465680091989        0.006011241875708        2.511509711192474
Se          8.254448828785069        2.849223522807645        8.351927394494231        0.437863177681832        0.252799460358353       -0.848634629254025
Se          8.293223827823477        2.871609801059453       11.690917806672962       -0.348376406409098       -0.201134919031131       -0.611014711628775
Mo          6.614007320653410        3.818589204346238        9.935005060436515        0.010469279638023        0.006044409121301        2.511516910284541
Se          6.594730690305856        5.723937660673309        8.351927394494231        0.437862406350540        0.252801003020939       -0.848634629254025
Se          6.633505689344263        5.746325266699628       11.690917806672962       -0.348376149298667       -0.201135433251993       -0.611014711628775
Mo          4.954287854399686        6.693304669986414        9.935005060436515        0.010438683496739        0.006057778863711        2.511509711192474
Se          4.935012551826643        8.598653126313485        8.351927394494231        0.437871662326054        0.252790204382839       -0.848626144609803
Se          4.973787550865050        8.621040732339804       11.690917806672962       -0.348380520175994       -0.201139547018888       -0.611018825395670
Mo          3.294569715920474        9.568020135626588        9.935005060436515        0.010480078276123        0.006050579771644        2.511523338045315
Se          3.275294413347432       11.473368591953660        8.351927394494231        0.437858549694075        0.252812830100763       -0.848626144609803
Se          3.314070740160349       11.495757525754488       11.690917806672962       -0.348382062838579       -0.201136718804148       -0.611018825395670
Mo         11.593157752767514        0.943875066480574       10.023276837687904        0.007226088661967        0.004133564398450       -0.722995046063964
Se         11.578358378070323        2.851807372005630        8.304191245282546       -0.038188869420053       -0.022060846307160        0.164809071793772
Se         11.608178865808007        2.869024624086958       11.643177674137744        0.061063470241182        0.035238784335285        0.207304283821876
Mo          9.933443597611834        3.818589204346238       10.023276837687904        0.007185979434738        0.004165703202319       -0.722995560284826
Se          9.918644222914642        5.726522837645804        8.304191245282546       -0.038209952475391       -0.022060589196729        0.164807529131187
Se          9.948464710652326        5.743740089727133       11.643177674137744        0.061035188093777        0.035238527224854        0.207304798042738
Mo          8.273725459132622        6.693304669986414       10.023276837687904        0.007200377618871        0.004140249269655       -0.722995560284826
Se          8.258926084435430        8.601238303285980        8.304191245282546       -0.038199668058153       -0.022042334356131        0.164809071793772
Se          8.288746572173114        8.618455555367309       11.643177674137744        0.061049329167480        0.035263209826225        0.207304283821876
Mo          6.614007320653410        9.568020135626588       10.023276837687904        0.007192664305943        0.004191414245415       -0.722995046063964
Se          6.599209273730728       11.475948457828112        8.304191245282546       -0.038189640751345       -0.022048762116905        0.164831954622127
Se          6.629028433693901       11.493168365458462       11.643177674137744        0.061049843388342        0.035247011869075        0.207278058557919
