# total energy = -9517.37452132675 eV 

 CRYSTAL
 PRIMVEC
        8.364863528117699        0.000000000000000        0.000000000000000
       -4.182431764058849        7.244180936938131        0.000000000000000
        0.000000000000000        0.000000000000000       19.999945357962428
 PRIMCOORD
12 1
Se          4.157825681504538        7.237374447485300        8.687624296809179        0.035775630915117       -0.019080936412401       -0.627211640337163
Se         -0.032873077179150        7.220380390741576        8.694986213200275       -0.064968977687376        0.002913318293142       -0.727975532221977
Se          6.264412836753232        3.594162698607738        8.711961867244236       -0.048892890881536        0.046770958494872       -0.732860630410106
Se          2.054309267657016        3.616885013895518        8.683645131228854        0.032243447814669       -0.017165463701793       -0.549325948819512
Se          4.157426677514247        7.213014291918716       11.320332090954127       -0.079005921665319        0.059840910141995        0.659724539883471
Se         -0.038311074958779        7.224871485969823       11.266786090051585        0.089005974766850        0.040513919047171        0.795247962260272
Se          6.240784606745358        3.613507282002864       11.336068908709574        0.008968526052543       -0.074443239957606        0.701471303447068
Se          2.053249439448004        3.600499919216641       11.333872295547092       -0.021230379615178       -0.019970538503503        0.602537266499354
Mo          2.057061307757767        1.188087497975494        9.971956241566490       -0.100752321915422        0.104704880570480       -0.146758119767774
Mo          6.229205126163385        1.198259172025685       10.008656243809753        0.129499839200406        0.041855007055028        0.187937697720685
Mo         -0.043830211914631        4.814498418456831        9.989208772593232        0.034480051453539       -0.135829126679205       -0.056467364177446
Mo          4.152910487695416        4.812530166068666        9.977016147514647       -0.015123749769586       -0.030109688348180       -0.106319534076872
