# total energy = -9526.638193512355 eV 

 CRYSTAL
 PRIMVEC
        5.974940318459000        0.000000000000000        0.000000000000000
       -2.987470159229500        5.174447689293456        0.000000000000000
        0.000000000000000        0.000000000000000       20.000067101485772
 PRIMCOORD
12 1
Se          2.954156879483932        5.160135317254618        8.210906981688032        0.083569631814755       -0.142095679212851        0.106675117802882
Se         -0.024934620936993        5.170516178563910        8.158328104379626        0.056375575753595       -0.144328683305688        0.724843670062525
Se          4.471430833977283        2.564428849837775        8.201653591616836       -0.095278697950838        0.218929274847038        0.316415522958048
Se          1.475173927515457        2.574619110550906        8.227573480212341       -0.048327505043868        0.149193469769771       -0.068195713595851
Se          2.959574955364710        5.167575910433196       11.803559725965226        0.088353685603519        0.047379024664078        0.267477637751095
Se         -0.026637478927754        5.155496373591367       11.797349372998218        0.005222941294403        0.288811118649086        0.323590189533824
Se          4.455907341535895        2.583340730933761       11.822337170904046        0.046661686561716       -0.185928893923640        0.194452618930632
Se          1.467795473716192        2.578859525694917       11.768808875579037        0.025323834786399       -0.235400797495685        0.879688684215099
Mo          1.466540736249316        0.851072291443395        9.998811077953729        0.199889733214020       -0.342305514913409       -0.141442875828658
Mo          4.463313877554657        0.854231242389765       10.018067713106090       -0.353863143005660       -0.069050862889204       -0.419128054799065
Mo         -0.020829836938212        3.440629947778513       10.039532686200156       -0.312874083882086        0.181316589902753       -1.208391771778878
Mo          2.966532175871524        3.431214636824686       10.038626287753845        0.304946597964476        0.233480696797319       -0.975985282362085
