# total energy = -9411.141993835752 eV 

 CRYSTAL
 PRIMVEC
        4.647181682993100        0.000000000000000        0.000000000000000
       -2.323590841496550        4.024575517014100        0.000000000000000
        0.000000000000000        0.000000000000000       20.000094397824135
 PRIMCOORD
12 1
Se          2.317734463139642        4.009317425394328        8.498797927411394       -0.623392779106201        0.635621465423242      -26.962745376399695
Se         -0.015327334626848        4.012645272197520        8.471492017278463       -0.293461989234616        1.598496686910975      -26.318092907089188
Se          3.471040412389426        2.008079270774931        8.499650220532056       -0.962213162128026       -1.268328841222051      -28.646602212166592
Se          1.143647711558019        2.002722929167113        8.513595483326380        1.356736005795208       -1.442315726959163      -30.244882154984271
Se          2.314584603394910        4.007446470048755       11.493455280759028       -0.881382270623794       -0.325003011351918       29.645377248907593
Se         -0.011853566318810        4.013961354050143       11.484727408840198       -0.210053051439207       -2.000497587462459       29.303935625042193
Se          3.465859269531057        1.997386105722364       11.506566374441258        1.481151229113065        1.123087415886476       27.470350529809135
Se          1.156163036548487        1.995504461858920       11.507546929776368       -1.415314503721218        1.257907898345047       28.498155391088311
Mo          1.135003024191315        0.663192791925589       10.027668187963107        1.387075293758230       -1.099133979697062       -4.200571490523606
Mo          3.459685023947032        0.661640168525301       10.016724075099656        0.773525987501109       -0.226105998306261       -3.513894578384072
Mo         -0.005281521982722        2.666113226314230        9.960220387170649       -1.722461966974662        1.198884856483917        5.193991174098262
Mo          2.302158969010923        2.665434273070344       10.002822031094984        1.109791207060112        0.547386821949255       -0.225021506508496
