# total energy = -9514.799550721147 eV 

 CRYSTAL
 PRIMVEC
        6.771563749103600        0.000000000000000        0.000000000000000
       -3.385781874551800        5.864343495817446        0.000000000000000
        0.000000000000000        0.000000000000000       19.999962507379962
 PRIMCOORD
12 1
Se          3.359802093071989        5.853182604446173        7.661381760710934        0.056135434611084        0.050591362388419        3.953616150260841
Se         -0.020317399872810        5.856447175329615        7.662034539456346       -0.056790037768293        0.030635993400343        3.957558424498661
Se          5.041918795266691        2.918599502686394        7.700481446954633        0.032663823369279       -0.022866116176908        3.956034016753533
Se          1.670416117192625        2.928669495137687        7.659906914126378       -0.017181661658943       -0.102755726393416        3.937575287584041
Se          3.362835753631587        5.851958982876710       12.321560421185659       -0.057336654544502       -0.058009512542309       -3.968450136574741
Se         -0.035864233084377        5.858242316879503       12.340463241391280        0.074499547141985       -0.066314950793421       -3.923872072945477
Se          5.057294307915405        2.915576676628794       12.313717596051445        0.009570421571407        0.012741621626795       -4.060159113302212
Se          1.682701765302624        2.912696730566300       12.316283341555982       -0.018685243459163        0.074786482382930       -3.995840882115580
Mo          1.662871918019749        0.953343405450424        9.961860735564404       -0.010624317227888        0.040354510579979       -0.147974766327049
Mo          5.057901717183699        0.960137315359900       10.016591899566533        0.005250709220946        0.038674551024125        0.023807911685493
Mo         -0.010344917939506        3.883655004797268       10.031777808430272       -0.021621444580659       -0.008052955807915        0.108051429939779
Mo          3.367941512698412        3.883688185459638       10.039544114894118        0.004119423324748        0.010214740311378        0.159653493432279
