# total energy = -9530.460122400047 eV 

 CRYSTAL
 PRIMVEC
        6.572434350304899        0.000000000000000        0.000000000000000
       -3.286217175152450        5.691892458222800        0.000000000000000
        0.000000000000000        0.000000000000000       20.000068893967864
 PRIMCOORD
12 1
Se          3.269836039777750        5.675326637442857        8.335221052209262       -0.068216282430327        0.246189408288953       -0.503265129334935
Se         -0.033303839339865        5.675258941369049        8.364381628934694        0.269209533614003        0.060172325487495       -0.570645802864661
Se          4.890073213058348        2.840644246321009        8.377606024090943        0.279975775799777       -0.335733515187789       -0.937912369746393
Se          1.621136282299721        2.835581500140969        8.393880028785732       -0.112444675873493       -0.249040762968234       -1.450756919517819
Se          3.261918228115937        5.675584934112823       11.611202975347981        0.161422413197244       -0.182756665426528        1.226090225404039
Se         -0.010665746463675        5.667409483024479       11.673654246544578       -0.073928247764405       -0.037349660973418        0.360901026832169
Se          4.888636478909372        2.839521017290542       11.656834072555277        0.084264344199193        0.033921093376644        0.391921657437219
Se          1.608250367512513        2.827112261237167       11.600312451629526        0.240733267833674        0.086950119760940        1.279073229021194
Mo          1.624400153198082        0.929468407872639       10.012683754134530        0.092740246666028       -0.274638934584462       -0.332551516494301
Mo          4.921869335958253        0.925250876750048       10.027537455766218       -0.498653596645342        0.225209711343955       -0.700117359917663
Mo         -0.014396917444343        3.770729805779142        9.992059455143272       -0.610334140318039        0.395288518530564        0.419173820455774
Mo          3.254886380604546        3.787251591248938        9.967525214957019        0.235231104611255        0.031788362351880        0.818089138725378
