# total energy = -38121.578591613325 eV 

 CRYSTAL
 PRIMVEC
       13.277745107833699        0.000000000000000        0.000000000000000
       -6.638872553916849       11.498859207011680        0.000000000000000
        0.000000000000000        0.000000000000000       20.000015178772852
 PRIMCOORD
48 1
Mo          1.672390418410129        1.020364172723272       10.000007589386426       -0.914539746020505       -1.894992836341281        0.000000000000000
Se          1.617262548496914        2.822074517385658        8.334301187863581        0.473806958818793        0.959343809718577       -0.303064549609892
Se          1.617262548496914        2.822074517385658       11.665717974232804        0.473806958818793        0.959343809718577        0.303064549609892
Mo          0.025734925568003        3.901628222250630       10.000007589386426       -0.756325813891138       -1.980957451820374        0.000000000000000
Se         -0.023884007899971        5.706295520748530        8.345467771499269        0.151848649190235        0.744198171973461       -0.660931416246370
Se         -0.023884007899971        5.706295520748530       11.654548735048094        0.151848649190235        0.744198171973461        0.660931416246370
Mo         -1.648349733117885        6.737879388087922       10.000007589386426       -0.444564503954222       -0.993746985153261        0.000000000000000
Se         -1.665503252022696        8.606147085652346        8.348529619521134       -0.358902250341931        0.070659088634823       -0.717454316276902
Se         -1.665503252022696        8.606147085652346       11.651488214800738       -0.358902250341931        0.070659088634823        0.717454316276902
Mo         -3.342074832367281        9.549970368926999       10.000007589386426        0.172528298262309        0.495795814205286        0.000000000000000
Se         -3.317404781956926       11.508007573390977        8.341825686016190        0.079142704414586        0.018711211612689        0.151742462582251
Se         -3.317404781956926       11.508007573390977       11.658188164982151        0.079142704414586        0.018711211612689       -0.151742462582251
Mo          5.004889341005640        1.026914084384966       10.000007589386426       -0.652811354615976       -1.770674543655894        0.000000000000000
Se          4.955270407537666        2.831581382882867        8.345467771499269        0.141575801921461        0.788685989841460       -0.650511758921522
Se          4.955270407537666        2.831581382882867       11.654548735048094        0.141575801921461        0.788685989841460        0.650511758921522
Mo          3.330804682319751        3.863165250222258       10.000007589386426       -0.762697010370182       -1.285349808861647        0.000000000000000
Se          3.313651163414941        5.731431620012171        8.348529619521134       -0.310519466555408       -0.030289922760279       -0.716201160036432
Se          3.313651163414941        5.731431620012171       11.651488214800738       -0.310519466555408       -0.030289922760279        0.716201160036432
Mo          1.637079583070356        6.675254903286825       10.000007589386426        0.175378624499867        0.335686978199787        0.000000000000000
Se          1.661749633480711        8.633288124427269        8.341825686016190       -0.622912753931609       -0.677824600001782       -0.532152771804790
Se          1.661749633480711        8.633288124427269       11.658188164982151       -0.622912753931609       -0.677824600001782        0.532152771804790
Mo         -0.057853790983853        9.497127598946843       10.000007589386426        1.063705704974164        1.785837117100554        0.000000000000000
Se         -0.004671110728936       11.522437826774171        8.328991417594958        0.079325767041426       -0.383151620637373        0.294478346768178
Se         -0.004671110728936       11.522437826774171       11.671027744501426        0.079325767041426       -0.383151620637373       -0.294478346768178
Mo          8.309959097757389        0.988451112356593       10.000007589386426       -0.380641965720829       -0.830397529276015        0.000000000000000
Se          8.292805578852578        2.856717482146506        8.348529619521134       -0.313118595901923        0.065633865261824       -0.723270411335516
Se          8.292805578852578        2.856717482146506       11.651488214800738       -0.313118595901923        0.065633865261824        0.723270411335516
Mo          6.616233998507993        3.800539437646649       10.000007589386426        0.165269042354749        0.350418377451736        0.000000000000000
Se          6.640905376692859        5.758573986561605        8.341825686016190       -0.601479514186408       -0.713210194393142       -0.535959291735067
Se          6.640905376692859        5.758573986561605       11.658188164982151       -0.601479514186408       -0.713210194393142        0.535959291735067
Mo          4.921301952228295        6.622413461081178       10.000007589386426        1.100762002945864        1.722769985270945        0.000000000000000
Se          4.974483304708701        8.647723688908505        8.328991417594958       -0.530481554003588       -0.898527679711973       -0.094111159483876
Se          4.974483304708701        8.647723688908505       11.671027744501426       -0.530481554003588       -0.898527679711973        0.094111159483876
Mo          3.244249717510806        9.482714606632289       10.000007589386426        1.338060275421991        2.261092121866481        0.000000000000000
Se          3.297174809510631       11.516338030671632        8.316980369370411       -0.011793912578298       -0.532342519302834        0.292326332461091
Se          3.297174809510631       11.516338030671632       11.683038792725972       -0.011793912578298       -0.532342519302834       -0.292326332461091
Mo         11.595388413945631        0.925825299780985       10.000007589386426        0.169873118841845        0.495315789030695        0.000000000000000
Se         11.620058464355985        2.883858520921430        8.341825686016190       -0.040220041824590       -0.179335811142682        0.120002179880960
Se         11.620058464355985        2.883858520921430       11.658188164982151       -0.040220041824590       -0.179335811142682       -0.120002179880960
Mo          9.900456367665932        3.747699323215515       10.000007589386426        1.054365140128031        1.828387093650451        0.000000000000000
Se          9.953637720146338        5.773008223268331        8.328991417594958       -0.111458914481215       -0.622527345395609        0.307730332600417
Se          9.953637720146338        5.773008223268331       11.671027744501426       -0.111458914481215       -0.622527345395609       -0.307730332600417
Mo          8.223405460722953        6.607999140992114       10.000007589386426        1.336827688015996        2.280889625049951        0.000000000000000
Se          8.276329224948267        8.641626548354989        8.316980369370411       -0.163414247705846       -0.632968085775796        0.349038208658374
Se          8.276329224948267        8.641626548354989       11.683038792725972       -0.163414247705846       -0.632968085775796       -0.349038208658374
Mo          6.573631025554998        9.514541361655766       10.000007589386426        1.010603145006616        1.481165113076337        0.000000000000000
Se          6.597670383072730       11.493018326938742        8.312307930866965        0.300705304295456       -0.117673787818239        0.516469549737448
Se          6.597670383072730       11.493018326938742       11.687708575680398        0.300705304295456       -0.117673787818239       -0.516469549737448
