# total energy = -9515.075308152349 eV 

 CRYSTAL
 PRIMVEC
        7.833781241021299        0.000000000000000        0.000000000000000
       -3.916890620510650        6.784250399255471        0.000000000000000
        0.000000000000000        0.000000000000000       19.999996028483224
 PRIMCOORD
12 1
Se          3.890192310663124        6.779191343330019        7.990101995551506       -0.045689552022278       -0.029314960006101        3.501066310542045
Se         -0.025389285002150        6.775898805074418        7.994395691049711        0.020396827598025       -0.037758209448204        3.483878735343190
Se          5.847342696879309        3.372364486447259        8.003355970033191        0.004414071878621        0.003300012381297        3.475004311708376
Se          1.917570989874048        3.372364486447259        7.992080808692989        0.007338703030725        0.045874157311703        3.468741358720764
Se          3.891589073858399        6.765679637445506       11.986420107442996        0.031819729824456       -0.002969625477521       -3.480660741189368
Se         -0.041280893627686        6.766739548047416       11.976907546882023       -0.041172378860845        0.010135807409075       -3.467608273051549
Se          5.837830136318337        3.373331175052401       12.009960620072265       -0.007948826083379        0.020241018676866       -3.530407238701672
Se          1.918379436098121        3.371002975267569       11.953921665964620        0.028464695810935       -0.024763591157350       -3.407811843014108
Mo          1.936100232643436        1.102531855508206       10.023183656580661       -0.033572965853133        0.044449251303355       -0.048970281121253
Mo          5.856661763043627        1.116855141129290        9.971034174859183       -0.036012943842888        0.002302423909195       -0.005813523954305
Mo         -0.048741786881635        4.512822810455746        9.976122215775225        0.052627419891145       -0.030819827358475        0.002031172404538
Mo          3.876529412800660        4.503659636538123        9.992910008974734        0.019334447297322       -0.000676457543840        0.010550269423773
