# total energy = -38121.41024259676 eV 

 CRYSTAL
 PRIMVEC
       13.277745107833699        0.000000000000000        0.000000000000000
       -6.638872553916849       11.498859207011680        0.000000000000000
        0.000000000000000        0.000000000000000       20.000015178772852
 PRIMCOORD
48 1
Mo          1.670771861281484        0.881662191777819       10.000007589386426       -0.855516704159375        1.444440744670999        0.000000000000000
Se          1.618663350605791        2.888650459130846        8.330514374958828        0.477768002118073       -0.819307070836807       -0.116865689733750
Se          1.618663350605791        2.888650459130846       11.669498148265003        0.477768002118073       -0.819307070836807        0.116865689733750
Mo          0.011053722802272        3.756376329643484       10.000007589386426       -0.855538558546006        1.444442544444016        0.000000000000000
Se         -0.041054787873422        5.763364596996511        8.330514374958828        0.477768259228504       -0.819301414407326       -0.116867232396336
Se         -0.041054787873422        5.763364596996511       11.669498148265003        0.477768259228504       -0.819301414407326        0.116867232396336
Mo         -1.648664415676941        6.631090467509148       10.000007589386426       -0.855509762177739        1.444465170161939        0.000000000000000
Se         -1.700771598578124        8.638078734862177        8.330514374958828        0.477757974811266       -0.819304499732498       -0.116866461065043
Se         -1.700771598578124        8.638078734862177       11.669498148265003        0.477757974811266       -0.819304499732498        0.116866461065043
Mo         -3.308382554156153        9.505805933149324       10.000007589386426       -0.855512076171618        1.444496537634516        0.000000000000000
Se         -3.360489737057335       11.512798183825883        8.330514374958828        0.477764916792902       -0.819311184603703       -0.116850263107893
Se         -3.360489737057335       11.512798183825883       11.669498148265003        0.477764916792902       -0.819311184603703        0.116850263107893
Mo          5.003541649877196        0.858568209711764       10.000007589386426       -1.421572314500212        2.235377222114600        0.000000000000000
Se          4.925647758202089        2.910217500509501        8.330514374958828        0.697424642374280       -1.021559134690434       -0.231438468644250
Se          4.925647758202089        2.910217500509501       11.669498148265003        0.697424642374280       -1.021559134690434        0.231438468644250
Mo          3.343823511397983        3.733282347577428       10.000007589386426       -1.421605738856236        2.235431729525962        0.000000000000000
Se          3.265929619722876        5.784932966149675        8.330514374958828        0.697421299938678       -1.021555278033970       -0.231437440202527
Se          3.265929619722876        5.784932966149675       11.669498148265003        0.697421299938678       -1.021555278033970        0.231437440202527
Mo          1.684105372918770        6.607997813217604       10.000007589386426       -1.421605481745805        2.235433015078117        0.000000000000000
Se          1.606211481243664        8.659648431789851        8.330514374958828        0.697427727699451       -1.021555278033970       -0.231439497085974
Se          1.606211481243664        8.659648431789851       11.669498148265003        0.697427727699451       -1.021555278033970        0.231439497085974
Mo          0.024387234439558        9.482711951083267       10.000007589386426       -1.421603939083219        2.235420416667001        0.000000000000000
Se         -0.053506657235548       11.534358586331983        8.330514374958828        0.697415643509197       -1.021490229094939       -0.231405301398657
Se         -0.053506657235548       11.534358586331983       11.669498148265003        0.697415643509197       -1.021490229094939        0.231405301398657
Mo          8.295705438384131        0.905803787932883       10.000007589386426       -0.761584493535443        1.218658705507740        0.000000000000000
Se          8.256335596364892        2.890728426240222        8.330514374958828        0.280247798635727       -0.450313493190357       -0.060019087670647
Se          8.256335596364892        2.890728426240222       11.669498148265003        0.280247798635727       -0.450313493190357        0.060019087670647
Mo          6.635987299904918        3.780519253573058       10.000007589386426       -0.761562382038381        1.218708842041776        0.000000000000000
Se          6.596617457885680        5.765443891880397        8.330514374958828        0.280255254838224       -0.450310150754754       -0.060018059228923
Se          6.596617457885680        5.765443891880397       11.669498148265003        0.280255254838224       -0.450310150754754        0.060018059228923
Mo          4.976269161425705        6.655233391438722       10.000007589386426       -0.761562896259243        1.218705756716604        0.000000000000000
Se          4.936899319406467        8.640158029746061        8.330514374958828        0.280254483506931       -0.450293695687173       -0.060015745235044
Se          4.936899319406467        8.640158029746061       11.669498148265003        0.280254483506931       -0.450293695687173        0.060015745235044
Mo          3.316551022946492        9.529948857078896       10.000007589386426       -0.761554925835884        1.218744066170817        0.000000000000000
Se          3.277181180927255       11.514878806484282        8.330514374958828        0.280252169513053       -0.450322492055440       -0.060007517701254
Se          3.277181180927255       11.514878806484282       11.669498148265003        0.280252169513053       -0.450322492055440        0.060007517701254
Mo         11.569747760367893        0.984426627814409       10.000007589386426        0.535323200528886       -1.007202345336385        0.000000000000000
Se         11.601448376812845        2.846250635678001        8.330514374958828       -0.203725820843856        0.345453060809150       -0.037118518695990
Se         11.601448376812845        2.846250635678001       11.669498148265003       -0.203725820843856        0.345453060809150        0.037118518695990
Mo          9.910030949663192        3.859142093454584       10.000007589386426        0.535285919516398       -1.007181262281047        0.000000000000000
Se          9.941734221657166        5.720963445769154        8.330514374958828       -0.203762330525052        0.345461288342940       -0.037120318469007
Se          9.941734221657166        5.720963445769154       11.669498148265003       -0.203762330525052        0.345461288342940        0.037120318469007
Mo          8.250312811183980        6.733856231320249       10.000007589386426        0.535316001436819       -1.007190004035699        0.000000000000000
Se          8.282016083177954        8.595678911409330        8.330514374958828       -0.203761559193759        0.345464887888973       -0.037119032916852
Se          8.282016083177954        8.595678911409330       11.669498148265003       -0.203761559193759        0.345464887888973        0.037119032916852
Mo          6.590594672704767        9.608571696960423       10.000007589386426        0.535312401890786       -1.007148866366746        0.000000000000000
Se          6.622297944698741       11.470398360373038        8.330514374958828       -0.203762587635483        0.345443547723204       -0.037099235413669
Se          6.622297944698741       11.470398360373038       11.669498148265003       -0.203762587635483        0.345443547723204        0.037099235413669
