# total energy = -9507.350284632756 eV 

 CRYSTAL
 PRIMVEC
        9.427081020035398        0.000000000000000        0.000000000000000
       -4.713540510017699        8.164087840376157        0.000000000000000
        0.000000000000000        0.000000000000000       19.999967175569981
 PRIMCOORD
12 1
Se          4.669105963629763        8.144688793053128        8.763738807811995        0.067530054690111       -0.083378084543694        0.496470729086541
Se         -0.027753326522984        8.132326119003453        8.786201656466536       -0.073899965617000       -0.049415339277235        0.259793378301168
Se          7.046872213486434        4.050420776906369        8.770622462372826       -0.004757057193514        0.096874068174909        0.419056063878397
Se          2.299770352329308        4.066949278058797        8.739200115916843       -0.016642243974801        0.010678567528819        0.591651982184047
Se          4.682923236280828        8.154462790654700       11.216043101877883       -0.054316121201652        0.097068186550279       -0.488976731355520
Se         -0.025250436512165        8.134226618537092       11.198301335398178        0.100801430007734        0.064755576029684       -0.253613471982754
Se          7.044797312953925        4.049962620768795       11.205439521146548        0.008668992400481       -0.136133288319024       -0.408306790981066
Se          2.310007219608964        4.076154822674861       11.235228154461758       -0.004849874059088        0.011238296937006       -0.536737307899134
Mo          2.324033773458675        1.336682786576655        9.977820520306887       -0.024665632083157        0.145464597189643       -0.054817229431582
Mo          7.022758682945286        1.343709732768990       10.026849825983989       -0.014915490320513        0.006887217113969        0.205515052332866
Mo         -0.022835218354832        5.421698122702248        9.973659406744643        0.180964862833208       -0.090219793111384       -0.107707416183163
Mo          4.674646259145237        5.418288347497302        9.965381486900949       -0.163919212592240       -0.073820004272973       -0.122328257949802
