# total energy = -9526.983494700484 eV 

 CRYSTAL
 PRIMVEC
        7.302698953924899        0.000000000000000        0.000000000000000
       -3.651349476962450        6.324319861572811        0.000000000000000
        0.000000000000000        0.000000000000000       20.000054981792154
 PRIMCOORD
12 1
Se          3.622963155858649        6.313183975937971        8.555739126363161       -0.083659877576020        0.661429182040697       -3.287792950955136
Se         -0.038608639099506        6.300595583481195        8.473990523463241        0.016950005160653       -0.043851212440956       -0.547195531788625
Se          5.353298968686697        3.196638893627467        8.286326496015173        0.622720692439687       -0.122741948633207        0.336146434539902
Se          1.832653197601595        3.144142711927282        8.431342031302423       -1.126938158810876       -0.095097177986585       -0.682820769896084
Se          3.683291482186917        6.302971151450907       11.444210696564056       -0.549343432328816       -0.099465741318927        0.937290419613915
Se          0.073299380210230        6.250214993667963       11.744158102048091       -0.362919600825590        0.282255831101479       -1.655825113921686
Se          5.396908496029851        3.111750130177357       11.528424690630823       -0.162146436170811        0.359509802290276       -0.635472341373289
Se          1.793780931069853        3.108278427094662       11.656526444870888       -0.163606309197769        0.218187254143304       -1.423971926152307
Mo          1.765072560942184        1.015200761017569        9.940337420456382        1.402778827549617        0.593731491349605        1.989895381731634
Mo          5.474948058131074        1.064147831026146        9.919725552658928       -0.829423594963561        0.049859883212355        1.554228955571873
Mo         -0.093983544727327        4.234809563934711       10.024034383437209        0.602613885407778       -0.569783711589672        0.561064068434293
Mo          3.567055883477085        4.244445475204414        9.817928850320797        0.632974256426138       -1.234033652168368        2.854453374195511
