# total energy = -9416.863578179085 eV 

 CRYSTAL
 PRIMVEC
        5.178263970089500        0.000000000000000        0.000000000000000
       -2.589131985044750        4.484506054696759        0.000000000000000
        0.000000000000000        0.000000000000000       19.999998575148734
 PRIMCOORD
12 1
Se          2.576480450513027        4.469723146714948        8.772774546677418        0.429851873763732       -0.642447747365075      -37.890647288299270
Se         -0.021579897268951        4.469444556113356        8.774180445345298       -0.247038129821532       -1.057510629140324      -37.845135656695213
Se          3.858319305849716        2.228467970833604        8.730646262322358       -0.121681625215952        1.332519545634929      -33.883582507430823
Se          1.278677007356552        2.238602869075863        8.784504350222464       -0.378424645364280        0.659892947215746      -37.434425654516019
Se          2.560006321518585        4.475461181020204       11.215663036331694        0.368053324800451        1.759293550429708       40.331077278191884
Se         -0.022859446295960        4.481960420129063       11.244258963453719        0.769421476581357        0.642851924962535       38.012951377868568
Se          3.865351906147495        2.233865275369629       11.202679575079490       -0.586241093164617       -1.994521055494930       41.081841793461486
Se          1.270269060148318        2.232368239255876       11.212633234082796       -0.075898227886376       -0.902568427244848       41.172765812043252
Mo          1.280357871841243        0.737862225278787       10.003890235121492       -0.161942804709495       -0.653464929331461       -0.781421334614850
Mo          3.865471006218807        0.731877705608555        9.988982530978001       -1.145043104027375        1.269493551474273       -0.619673933832880
Mo         -0.026532906756342        2.979412562206425       10.028043729583578       -0.643503957015435        0.911110921313300       -5.841700172211953
Mo          2.564854730073779        2.987163387716855       10.031441706400750        1.792447169169954       -1.324649395343422       -6.302049456853743
