# total energy = -9459.16356271521 eV 

 CRYSTAL
 PRIMVEC
        5.443805113637699        0.000000000000000        0.000000000000000
       -2.721902556818850        4.714471323538089        0.000000000000000
        0.000000000000000        0.000000000000000       19.999957500357748
 PRIMCOORD
12 1
Se          2.672582226869804        4.736565006591787        8.751858498457262        2.634220292353105        4.432495126551067      -25.325005410191327
Se         -0.052104836264672        4.722741552266727        8.793267346434657        0.028555712903493        3.877552857477792      -27.960558048797633
Se          4.078183050440773        2.315458812565966        8.435858676742866        2.136793883794708       -2.263002709478901      -14.337941359687473
Se          1.323285046447654        2.364702929243421        8.555632188092099       -1.962002756629571       -4.778773768954010      -17.239433858557341
Se          2.719513270754474        4.747441184828324       11.232241741984971       -4.757895373518808      -12.583100447701028       33.904931929175525
Se         -0.066207557792062        4.711807125315474       11.251216124708556        8.056008222951583       -6.381518177294779       37.429932135514235
Se          4.122032900631125        2.334485455818641       11.255687666228898       -4.834349988377769        4.650020064224233       27.031312871678708
Se          1.277320822351166        2.364297365762455       11.251604268013159        5.866472505123955        5.591454846874698       26.252256181697341
Mo          1.360123820032152        0.728122543461826       10.171312172900905       -3.948044824332495       12.614947431231165      -25.251471569828002
Mo          4.063652990211963        0.758336206223027       10.094736888269921       -2.148869589405332        5.896346423206950      -14.146215139766678
Mo         -0.029804288616655        3.155423243326456        9.978779484305347       -0.959093127048397       -7.548227463117799       -8.672197796224172
Mo          2.738604150907490        3.091398107004451        9.841400707218607       -0.111795729145765       -3.508193668798525        8.314390064986814
