# total energy = -38122.0830381075 eV 

 CRYSTAL
 PRIMVEC
       13.277745107833699        0.000000000000000        0.000000000000000
       -6.638872553916849       11.498859207011680        0.000000000000000
        0.000000000000000        0.000000000000000       20.000015178772852
 PRIMCOORD
48 1
Mo          1.634851577441262        0.943875066480574        9.998815247875742       -0.059160595941691       -0.006973349108339       -0.364509057509748
Se          1.647397718793653        2.854768309164676        8.388191571932746       -0.241589959789614        0.096976655236860       -0.674849060984350
Se          1.622528502206681        2.866066342476932       11.727178000787944        0.195274086757531       -0.082500823753279       -0.571694299202093
Mo         -0.024865233263440        3.818589204346238       10.009047078255840        0.090927618127801        0.031167954881987        1.548192516873931
Se         -0.018656559651017        5.747265331053263        8.412900127803914       -0.138602576897908       -0.243113596203448       -0.983075616716508
Se         -0.030850840758052        5.722997596319675       11.751887884433623        0.098587966307649        0.179304443670106       -0.807255276496262
Mo         -1.684584699517163        6.693304669986414       10.002177172937046       -0.057221983292296       -0.003940217354373        0.279142995113917
Se         -1.696247870819884        8.616806459424915        8.281735922756178        0.185357080325198       -0.095381027902358        0.492716916794610
Se         -1.672695806547609        8.602887399228372       11.620718368287845       -0.222217717258941        0.112430534799791        0.574751342226138
Mo         -3.344301510221865        9.568020135626588        9.991201788830910        0.091952974526446        0.018840281049028       -1.525288862574104
Se         -3.351559125697807       11.473178720198618        8.242860012854951        0.101970254026851        0.167894911186084        0.858495585612410
Se         -3.336820828628111       11.495948725284041       11.581847769484661       -0.146186563279762       -0.232878029947163        1.053786127437522
Mo          4.954287854399686        0.943875066480574       10.007147032930908        0.068150462160003        0.102066927548890       -0.267297917559858
Se          4.949110861582142        2.873084958540933        8.343241093644686        0.067972027520921       -0.167404858704686       -0.139491150547285
Se          4.959689241109553        2.847748365326165       11.682228850274395       -0.064456556598484        0.159186580889667       -0.117941439776862
Mo          3.294569715920474        3.818589204346238        9.994602219353027        0.045420871621931       -0.045630159512728        0.089319392382183
Se          3.281918680381730        5.730665494119449        8.234046245652372        0.153746124170677        0.057351052728635        0.888381587885660
Se          3.307445145351540        5.739597433253489       11.573028691184039       -0.239955765890469       -0.093167049981412        1.104251505714774
Mo          1.634851577441262        6.693304669986414        9.992286580606221        0.053088676004277        0.098918353211426        0.135073736233062
Se          1.638874734208935        8.596695986684589        8.307367281912340       -0.042531978819730        0.166363304348890        0.224386186633609
Se          1.631052814565910        8.622996544194187       11.646357694091071        0.046258794516411       -0.181801243065102        0.254264732704361
Mo         -0.024865233263440        9.568020135626588       10.004576461478031        0.024323932320418       -0.049864768310543       -0.082433975041230
Se         -0.011567571537945       11.487607645807300        8.424482304861476       -0.235047784873985       -0.073449251031537       -1.076363251490038
Se         -0.037939828871124       11.481518471900849       11.763468733716675        0.151114856020292        0.044156916743361       -0.869119645729867
Mo          8.273725459132622        0.943875066480574        9.990837978614955        0.132381275800110        0.050759769720694        0.219709605004984
Se          8.269082231668413        2.847672682179050        8.254359867892846        0.063571325384709        0.149945517780312        0.714036290207797
Se          8.278590424940132        2.873160641688048       11.593347624522556       -0.097236079661692       -0.203365866240520        0.855414888428717
Mo          6.614007320653410        3.818589204346238        9.998815247875742       -0.054380398809391       -0.011835050247251        0.014592045398372
Se          6.626552134231290        5.729482447030341        8.388191571932746       -0.199413307585462        0.072589473750427       -0.642015030509780
Se          6.601684245418829        5.740780480342597       11.727178000787944        0.157614864825244       -0.062955031681712       -0.551728645796778
Mo          4.954287854399686        6.693304669986414       10.009047078255840        0.135217975184827        0.050213152944486       -0.121867516057532
Se          4.960497855786620        8.621979468918926        8.412900127803914       -0.122583054386878       -0.202000352741723       -0.933507810953717
Se          4.948302246905075        8.597713061959851       11.751887884433623        0.079017491634712        0.144653670890414       -0.770852039019186
Mo          3.294569715920474        9.568020135626588       10.002177172937046       -0.055474146582670        0.004240522337727       -0.027944304298684
Se          3.282906544617752       11.491517941741558        8.281735922756178        0.155069728669229       -0.077086592298246        0.470340081767807
Se          3.306457281115518       11.477597553770504       11.620718368287845       -0.188255486213344        0.087999644540095        0.541560442473403
Mo         11.593157752767514        0.943875066480574       10.006187051959612        0.021125221448918       -0.053564330301542       -0.057703294019042
Se         11.605468878031497        2.866252230908442        8.428356750883943       -0.070489652860824       -0.019059339136201       -1.117435357282810
Se         11.581077660268408        2.854582420733167       11.767348490837184        0.036345130519680        0.002151757196655       -0.914023982496011
Mo          9.933443597611834        3.818589204346238       10.007147032930908        0.022483792966080        0.091989227097211       -0.053898830972214
Se          9.928265277019779        5.747800424181108        8.343241093644686        0.100079463917615       -0.168417359581783       -0.141739581265979
Se          9.938843656547190        5.722463830966340       11.682228850274395       -0.095667963143303        0.162692024505296       -0.123611239000263
Mo          8.273725459132622        6.693304669986414        9.994602219353027        0.040910126221271       -0.053330359809374        0.047240699252225
Se          8.261073095819366        8.605379631985114        8.234046245652372        0.045301058161107       -0.010474421846642        0.905182211885929
Se          8.286599560789176        8.614312898893663       11.573028691184039       -0.082641463159010       -0.000095902190746        1.103408697722106
Mo          6.614007320653410        9.568020135626588        9.992286580606221        0.043359874407403        0.097990441666112        0.063103127289942
Se          6.618029149646572       11.471408796775744        8.307367281912340       -0.083824171141400        0.171511940728747        0.235902419946477
Se          6.610207230003547       11.497708026510830       11.646357694091071        0.090314666860406       -0.183106849833487        0.262394307420701
