# total energy = -9523.281154592569 eV 

 CRYSTAL
 PRIMVEC
        6.240481462007200        0.000000000000000        0.000000000000000
       -3.120240731003600        5.404412958134786        0.000000000000000
        0.000000000000000        0.000000000000000       20.000031670846408
 PRIMCOORD
12 1
Se          3.099564767823678        5.392603471016082        7.862510523852841       -0.047737693715259       -0.016116453143500        3.399994914581808
Se         -0.028439746166805        5.395975827198152        7.907674136289681        0.021806564090946       -0.034235025212839        3.389711525785366
Se          4.657950903527186        2.689829108135648        7.898431983244448        0.046527217806327       -0.004816706813495        3.387373877747131
Se          1.550019522207395        2.683037592160545        7.896105531755411       -0.051108925685930        0.042065323387548        3.380546310253143
Se          3.105488856875561        5.393315509950898       12.128340774714806       -0.038617986729315       -0.015437424495350       -3.403296469625691
Se         -0.018740165830408        5.389722240725074       12.103572927840245       -0.051647829149210        0.053617809271181       -3.400077189919714
Se          4.644358510854787        2.697890562088268       12.083876720249858        0.055300082820914       -0.056808806829753       -3.336925725868753
Se          1.521162911878928        2.696263668571123       12.123323427619351        0.091099367895679       -0.054141286108604       -3.438842758036397
Mo          1.525927519475170        0.884664381113357       10.031431667199239        0.060174125260512        0.023834651170313       -0.007104989648987
Mo          4.656579245701836        0.892685271936475        9.961673069224338        0.059734980644442       -0.055137331918120        0.019164754412892
Mo         -0.023479187452656        3.588537068731105        9.989970532413809        0.013796545725000        0.004365735117602        0.010383918974946
Mo          3.113084146862970        3.582584273464497       10.015906597418057       -0.159326191853675        0.112809258464586       -0.000927911545314
