# total energy = -9524.985680527974 eV 

 CRYSTAL
 PRIMVEC
        6.638793177329500        0.000000000000000        0.000000000000000
       -3.319396588664750        5.749360861396781        0.000000000000000
        0.000000000000000        0.000000000000000       19.999981854470612
 PRIMCOORD
12 1
Se          3.361703625945918        5.702113898112362        7.941823635968484       -0.244200144884660        0.107970440154029        3.505858334754168
Se          0.039867280788499        5.722178322732205        7.871988178898201       -0.190720661025333       -0.105550773888319        3.633554544281431
Se          4.965419632931144        2.878242143238027        8.134778168029612       -0.204060321514528       -0.389608692000355        2.597208731596392
Se          1.651684607088021        2.816956787900828        7.907021090494968       -0.195317281309931        0.099681714080928        3.574404489867410
Se          3.336138297299340        5.683496730405177       11.850495440156624       -0.390989375014579        0.343567155798101       -1.768509930937691
Se         -0.010805299775421        5.747369223443581       11.967341519474214       -0.161493889897049       -0.020698161023103       -3.008695721497930
Se          4.981225271727729        2.908092149001254       12.028208630841242       -0.010865229701692       -0.487986084865053       -2.965537164557964
Se          1.569933844023067        2.870207211855506       12.026716894014294        0.309217973553918       -0.175796428950167       -3.174429105290982
Mo          1.601172685318991        0.918913868674605       10.095181263208444        0.677715328068627        0.204872019145050       -1.077830323609062
Mo          4.946727446861055        0.908358187522651       10.025827118643518        0.203091272300261        0.235609828276051       -0.512349097970977
Mo         -0.082652975057752        3.804019196299356        9.903538556679155        0.850557301056700        0.277073513255166        0.578099434258023
Mo          3.361576161116913        3.767883581155833       10.162040549297329       -0.642934714521303       -0.089134272871896       -1.381774448003248
