# total energy = -38121.816679084346 eV 

 CRYSTAL
 PRIMVEC
       13.277745107833699        0.000000000000000        0.000000000000000
       -6.638872553916849       11.498859207011680        0.000000000000000
        0.000000000000000        0.000000000000000       20.000015178772852
 PRIMCOORD
48 1
Mo          1.599326970405252        1.005028377123724       10.000007589386426        1.368139881849749       -0.381717201543079        0.000000000000000
Se          1.668381867162074        2.918259830721316        8.330514374958828       -0.018477755341383       -0.294602016885467       -0.005226540840436
Se          1.668381867162074        2.918259830721316       11.669498148265003       -0.018477755341383       -0.294602016885467        0.005226540840436
Mo         -0.060192001897343        3.757364193879507       10.000007589386426        1.289942829600212        1.475381671042454        0.000000000000000
Se          0.008854928212414        5.677279664364382        8.330598024753007       -0.164716512038629        0.425899315108673       -0.004716176634992
Se          0.008854928212414        5.677279664364382       11.669418481794358       -0.164716512038629        0.425899315108673        0.004716176634992
Mo         -1.613860790200287        6.693155959241206       10.000007589386426       -1.299452058889052       -0.446014092563941        0.000000000000000
Se         -1.751375740733099        8.609645771488260        8.330430725164646        0.244482966358710       -0.062826219355804       -0.031726912958882
Se         -1.751375740733099        8.609645771488260       11.669588436931738        0.244482966358710       -0.062826219355804        0.031726912958882
Mo         -3.379442390424257        9.629395184613038       10.000007589386426       -0.177494386236189       -0.681788471515803        0.000000000000000
Se         -3.311137686266029       11.542618671563567        8.330514374958828       -0.862994761043677       -0.366130138776914       -0.305821287650582
Se         -3.311137686266029       11.542618671563567       11.669498148265003       -0.862994761043677       -0.366130138776914        0.305821287650582
Mo          4.918962413540294        0.882648728239331       10.000007589386426        1.644110905576984        0.963374015723784        0.000000000000000
Se          4.988008015875541        2.802565526498717        8.330598024753007       -0.082310304923941        0.298724782645816       -0.024414949412976
Se          4.988008015875541        2.802565526498717       11.669418481794358       -0.082310304923941        0.298724782645816        0.024414949412976
Mo          3.365293625237350        3.818441821375542       10.000007589386426       -1.084297679389283        0.034817380338951        0.000000000000000
Se          3.227778674704538        5.734930305848085        8.330430725164646        0.317429052276870        0.025573746125287       -0.010060216942374
Se          3.227778674704538        5.734930305848085       11.669588436931738        0.317429052276870        0.025573746125287        0.010060216942374
Mo          1.599712025013379        6.754679718972864       10.000007589386426        0.626300955190723       -0.897662760222243        0.000000000000000
Se          1.668016729171608        8.667899222599859        8.330514374958828       -0.178275487725428       -0.295393659902374       -0.011211814562618
Se          1.668016729171608        8.667899222599859       11.669498148265003       -0.178275487725428       -0.295393659902374        0.011211814562618
Mo         -0.060575728730959        9.507016863503157       10.000007589386426        0.425174263693383        0.609719646388058        0.000000000000000
Se          0.009217410653858       11.426917728468414        8.330598024753007       -0.182296694865551        0.178774281961479        0.357965854152396
Se          0.009217410653858       11.426917728468414       11.669418481794358       -0.182296694865551        0.178774281961479       -0.357965854152396
Mo          8.344448040674987        0.943726355735366       10.000007589386426       -2.189870989829592        0.051585865535350        0.000000000000000
Se          8.206931762367665        2.860214840207910        8.330430725164646        0.238158563978099        0.047279522927299       -0.029152466213738
Se          8.206931762367665        2.860214840207910       11.669588436931738        0.238158563978099        0.047279522927299        0.029152466213738
Mo          6.578866440451017        3.879964253332689       10.000007589386426        0.543101562396542       -0.968910374633520        0.000000000000000
Se          6.647171144609246        5.793183756959684        8.330514374958828       -0.138363464197120       -0.290195915430205       -0.007649292431317
Se          6.647171144609246        5.793183756959684       11.669498148265003       -0.138363464197120       -0.290195915430205        0.007649292431317
Mo          4.918578686706678        6.632301397862983       10.000007589386426        0.524844407804918        0.912104138908076        0.000000000000000
Se          4.988371826091495        8.552206246151773        8.330598024753007       -0.194203993143900        0.274049380366284        0.008075067304977
Se          4.988371826091495        8.552206246151773       11.669418481794358       -0.194203993143900        0.274049380366284       -0.008075067304977
Mo          3.365290969688328        9.567426620420267       10.000007589386426       -0.902048292843028        0.153168397032323        0.000000000000000
Se          3.227781330253559       11.483937677059496        8.330432052939157        1.146755202387099       -0.012511250680660       -0.332161737080974
Se          3.227781330253559       11.483937677059496       11.669588436931738        1.146755202387099       -0.012511250680660        0.332161737080974
Mo         11.558018200339632        1.005250115467025       10.000007589386426        0.455551604000186       -0.744526501993790        0.000000000000000
Se         11.626328215595905        2.918469619094020        8.330514374958828       -0.798515578727268       -0.688654348464003       -0.496028756255731
Se         11.626328215595905        2.918469619094020       11.669498148265003       -0.798515578727268       -0.688654348464003        0.496028756255731
Mo          9.897733102144315        3.757587259997318       10.000007589386426        0.577778817550623        0.786014869574277        0.000000000000000
Se          9.967526241529132        5.677492108286107        8.330598024753007        0.166670808424311        0.283478905421528        0.198230856713504
Se          9.967526241529132        5.677492108286107       11.669418481794358        0.166670808424311        0.283478905421528       -0.198230856713504
Mo          8.344445385125965        6.692711154780094       10.000007589386426       -0.830145561053680        0.095300552337470        0.000000000000000
Se          8.206935745691196        8.609224866968342        8.330432052939157        0.519541248056058        0.334290354338844        0.194882250460757
Se          8.206935745691196        8.609224866968342       11.669588436931738        0.519541248056058        0.334290354338844       -0.194882250460757
Mo          6.579254150608166        9.629614267407318       10.000007589386426        0.360951677587066       -0.669349983087102        0.000000000000000
Se          6.646804678844269       11.542817837740184        8.330513047184315       -0.679177257979032       -0.003505186505198       -0.063193115940776
Se          6.646804678844269       11.542817837740184       11.669498148265003       -0.679177257979032       -0.003505186505198        0.063193115940776
