# total energy = -9522.758150198346 eV 

 CRYSTAL
 PRIMVEC
        7.568240097473099        0.000000000000000        0.000000000000000
       -3.784120048736550        6.554285130414141        0.000000000000000
        0.000000000000000        0.000000000000000       20.000020487584848
 PRIMCOORD
12 1
Se          3.756461915300334        6.546759272461213        8.180468339214128       -0.001529549953746       -0.053925570457033        2.802916873862905
Se         -0.032782588806214        6.532103375512457        8.215012814315033        0.010969616536659        0.008513440589754        2.576414411272112
Se          5.642012496360772        3.260249496485501        8.214915184017777        0.005063018606349        0.015043274204697        2.641356906585100
Se          1.865876940927057        3.255910624437619        8.228643214730582       -0.003573063658970        0.023317859204095        2.554496518364563
Se          3.742674095490758        6.550126382480579       11.832441618080729        0.025565518591496       -0.047667759678040       -2.704245346665195
Se         -0.048602481081962        6.549628392282165       11.764404653252464        0.063451254813454       -0.037661535926166       -2.357342697246326
Se          5.637442792989918        3.264199360992372       11.842788159117983        0.013474386355015       -0.011410818036177       -2.748949651516057
Se          1.857186330823128        3.259116530942909       11.838562810671565        0.018063293326685        0.007045082918575       -2.737997518488703
Mo          1.864643317791169        1.069704894088975       10.020696514450847       -0.064013041105089        0.067411526781441       -0.080672768589194
Mo          5.649829731557452        1.074954225420582       10.037364049617512       -0.045323683879031        0.050140390692526       -0.171231176138145
Mo         -0.033531087751855        4.365360888222484        9.996845205783661       -0.015435881832764       -0.083631338318184        0.108272287799969
Mo          3.753692696248669        4.345081032057294       10.003694463071874       -0.006711610689627        0.062825705134942        0.116982417869403
