# total energy = -9528.087340495065 eV 

 CRYSTAL
 PRIMVEC
        6.671972590841800        0.000000000000000        0.000000000000000
       -3.335986295420900        5.778095062983770        0.000000000000000
        0.000000000000000        0.000000000000000       19.999938398170332
 PRIMCOORD
12 1
Se          3.267501165564945        5.745791373290690        8.057940122742849        0.340739712388898        0.016307486193699        2.675574191178204
Se          0.011101495193902        5.788993730210910        8.214630731841510        0.472596225799430       -0.572960310964111        1.295793634567005
Se          4.935253455064865        2.853434543393749        8.189384654755024        0.533016662852796        0.204683300088729        2.072312644594852
Se          1.643353552932471        2.864739533751671        8.112243974856970       -0.095284868601181        0.055098251132615        2.340808953873388
Se          3.280574228659440        5.786872042927022       11.886749671994501        0.405489631989101       -0.317166542526866       -2.671762014818446
Se         -0.010361573433577        5.720531952259023       11.784468332176896       -0.149952459761948        1.071577912149119       -0.818393043254766
Se          5.009288998919142        2.837850149816060       11.826854039651996       -0.419602166433744        0.445669821696894       -1.553767442348311
Se          1.678678311814683        2.834460787739913       11.879475220278707        0.154843728600420       -0.009401500018270       -2.424975338998387
Mo          1.730200618555682        0.897984126987693        9.835027361483411       -1.530125881111644        0.655906449983802        1.845240168178634
Mo          4.982594436583184        0.971391838221171       10.058160809627971        0.314766930874770       -0.536965364851390       -0.881001490075552
Mo          0.007936978594065        3.893929336132786       10.186803780349249        0.073215023428938       -1.506541912611512       -2.679821398387136
Mo          3.306748377133313        3.804480868396406        9.928976074732315       -0.099702282915405        0.493792409727291        0.799991135490514
