# total energy = -9528.813139451644 eV 

 CRYSTAL
 PRIMVEC
        7.037104892651799        0.000000000000000        0.000000000000000
       -3.518552446325899        6.094308764658774        0.000000000000000
        0.000000000000000        0.000000000000000       19.999937665154004
 PRIMCOORD
12 1
Se          3.496565012088809        6.084874821839685        8.291798176275959       -0.070087789257243        0.027014078759492        1.526133727450219
Se         -0.039723049698041        6.089809239790412        8.230031395501685        0.080624431828175       -0.079680579436142        2.053860857406995
Se          5.240295566833401        3.036089238596182        8.261750442094826        0.079877526026253       -0.025969439078525        1.830346789355183
Se          1.733560530753732        3.038241185272355        8.299415138611765       -0.060384698703463        0.025754237647816        1.482422383083702
Se          3.492945829042518        6.076163589693071       11.726891262285497        0.015403743028895        0.042944641061412       -1.478972989542021
Se         -0.022464549948812        6.080487186939117       11.739840942708955       -0.049960413390858       -0.004100911373719       -1.565875286762804
Se          5.260008608769187        3.028873391239256       11.753935560098446       -0.078614085368544        0.022175260448935       -1.623805095071517
Se          1.752392527156958        3.021514690653010       11.717123056984008       -0.091308912896906        0.069738890402438       -1.369687172423231
Mo          1.737112157593054        1.004922504827312       10.002789304217977        0.052240982913421       -0.111124156700112       -0.067335164983447
Mo          5.245203947496026        1.004632576105735       10.024189843907022       -0.015179028512241        0.003571263885953       -0.362249571042523
Mo         -0.035699936830912        4.044632333890762       10.034324682373418        0.055979368579495        0.111498252377151       -0.464918651220708
Mo          3.496656494452413        4.053543419816328       10.001695738117659        0.081408361532154       -0.081821537994698        0.040080430860582
