# total energy = -9529.145356448113 eV 

 CRYSTAL
 PRIMVEC
        6.904334320877699        0.000000000000000        0.000000000000000
       -3.452167160438850        5.979326130238110        0.000000000000000
        0.000000000000000        0.000000000000000       19.999950931310131
 PRIMCOORD
12 1
Se          3.390572213095435        5.954171569006856        8.483235444645246        0.079365362047793        0.920224200538471       -0.589068793684251
Se         -0.041341773046551        5.941973681562161        8.342268269949020       -0.152379839340586        0.113868296329686        1.523163587751837
Se          5.212665395080688        2.978553991196762        8.195440005847805       -0.231662926050473       -0.150292102641238        2.105975084877957
Se          1.747848803732560        3.001024147244059        8.277437261109412       -0.862304933757427       -0.515934245820202        1.141614536430602
Se          3.460333607073584        5.973704621234051       11.831283172224964       -0.611218600200521       -0.376488346708765       -1.116549354737742
Se         -0.068310102903900        6.005978932016993       11.666611346504869        0.202696607788747       -0.498875740057686        0.829251845195683
Se          5.108487965813262        2.996663369686992       11.559511312519415       -0.260669353539429        0.003962843072296        0.457766867473287
Se          1.734458537750650        3.003671959456116       11.649859360142123        0.033090112463801        0.134986061576106        0.238662243312339
Mo          1.642439641222288        0.971745700957907       10.143371585165374        0.409763835793283        0.346149315856173       -2.012249591040512
Mo          5.120319923538950        0.927368092110466       10.100054482069620        0.373961979614209        0.694507981645536       -1.478667285239617
Mo         -0.001196521137808        3.982385514610652       10.121311546576740       -0.208934621064557       -0.041216344744538       -2.747583623796398
Mo          3.362222325940480        3.984284206548894        9.885016227912155        1.228292633355592       -0.630891919045841        1.647684997677678
