# total energy = -9522.712419270234 eV 

 CRYSTAL
 PRIMVEC
        6.107710890233100        0.000000000000000        0.000000000000000
       -3.053855445116550        5.289430323714121        0.000000000000000
        0.000000000000000        0.000000000000000       20.000047449589029
 PRIMCOORD
12 1
Se          2.951833463948274        5.312519913963557        8.469163857965107        3.710223332129376       -4.333384454737288       -8.036767878071990
Se         -0.004835474711798        5.253039971459022        8.431999658740217        0.081963977173446       -1.769186902702393       -6.899015911645613
Se          4.569977405567824        2.634576972550362        8.412458648518005       -0.838804011926492        1.489557454653111       -3.498179988844153
Se          1.485858252990169        2.683878414856324        8.252905084619179        0.366612735055815        0.323251060875396       -0.684024818044242
Se          2.948421085873901        5.323741000411093       11.848038695021057        0.796446096868518        0.085003022467324       -0.298230359287092
Se         -0.097613435447705        5.315310527069305       11.650743753218212        0.668352137504569        0.655505871932376        1.997651632102228
Se          4.532168842844015        2.613896874247122       11.663727525028669        1.123569240834084       -1.875332373017509        4.023699568640757
Se          1.508167277787835        2.643800226765703       11.458035702293932       -2.121384227225901       -2.982428034319498        7.035739782624539
Mo          1.543458852853780        0.839117022221010        9.818109220555456       -2.175849729587938        2.308614871261462        6.080781762637177
Mo          4.600726065273614        0.821633089026628        9.828345744007486       -3.208873932615480        2.963884201597360       10.829186418818175
Mo         -0.085002234001552        3.538890143898076       10.100518167469144        0.848385746356861       -0.354246751768644       -3.431077765911151
Mo          3.054648225990102        3.489338285445615       10.196382965288974        0.749358635433142        3.488762033758302       -7.119762185908203
