# total energy = -9515.910651754224 eV 

 CRYSTAL
 PRIMVEC
        6.771563749103600        0.000000000000000        0.000000000000000
       -3.385781874551800        5.864343495817446        0.000000000000000
        0.000000000000000        0.000000000000000       19.999962507379962
 PRIMCOORD
12 1
Se          3.345457212425888        5.852640879346244        7.731917077347097       -0.000990389380035        0.031632039209860        4.026588975663819
Se         -0.034111075229734        5.848889433029242        7.660876602055250        0.012510993570230       -0.008802689824578        3.969564196072065
Se          5.039884617516460        2.919359949295419        7.729266687295697        0.062664754005165       -0.014051342162076        4.040713851409148
Se          1.673556768459459        2.925359554777125        7.714316428850426       -0.064137482553670       -0.015751870552407        4.022976574108914
Se          3.370808592789782        5.851676608668372       12.280936455942037       -0.028330484165977       -0.020305810505467       -4.026775123615830
Se         -0.030816709465796        5.846409686384320       12.279253045194007        0.013220875470094        0.030079606427758       -3.992217424812143
Se          5.059738842428832        2.927701838677939       12.340893912845724       -0.037367915814016       -0.015330980776935       -3.908520266223635
Se          1.678734306102024        2.915485937674557       12.265118083024129        0.011027209273193        0.003455049971162       -4.047184806735403
Mo          1.654765679055697        0.966554726324925        9.996217618558230        0.020865282803223        0.027215653337360        0.099913627689649
Mo          5.038428054154028        0.973313424102906        9.978047481550259        0.029655888437546       -0.015646455275716       -0.108013377595998
Mo         -0.013887800093037        3.893842145301420        9.971084959703433        0.000824038931208       -0.016645329299972       -0.064413619156515
Mo          3.359970705009342        3.886858631606969       10.010005199507781       -0.019942513466529        0.014152129451010       -0.012632606804071
