# total energy = -9528.049085081699 eV 

 CRYSTAL
 PRIMVEC
        7.302698953924899        0.000000000000000        0.000000000000000
       -3.651349476962450        6.324319861572811        0.000000000000000
        0.000000000000000        0.000000000000000       20.000054981792154
 PRIMCOORD
12 1
Se          3.617816943905817        6.312266756949358        8.459275585071081       -0.033148990752489       -0.066911446993235       -0.236657296171758
Se         -0.024151485980420        6.297841005435775        8.462155039268614       -0.044900222999249        0.057028893358650       -0.448110313907511
Se          5.457729024267614        3.141770065037152        8.427933131430732       -0.115141764294202       -0.001332346253204        0.072083223311878
Se          1.786762307105236        3.152442229288418        8.419264097502527        0.081008554812021       -0.003951015992473        0.050504973283619
Se          3.641973541775505        6.296258510572459       11.578806010713951       -0.115716920328247        0.076571600105045        0.045511117383196
Se         -0.023745455918582        6.317818998964027       11.535351300588621       -0.108354563137874       -0.057194986697046        0.510560894923691
Se          5.456386788199882        3.153727504304308       11.593113458504479       -0.068337895664169       -0.069630904021437       -0.059322318402761
Se          1.788958958950577        3.138651812583826       11.572411767509895        0.028863731199776        0.017625691373201        0.067234377694513
Mo          1.795202766556182        1.046597254630178        9.991419069369192       -0.025293752865978       -0.022596407334837        0.087390549929165
Mo          5.435024933219862        1.039298207025730       10.011324035907904        0.342871672082370        0.110150993718951        0.034261764697659
Mo         -0.032173500781307        4.192922013004893       10.005568048592419        0.032395914300224       -0.041265195726419       -0.021103367062287
Mo          3.622651330613316        4.191201497131348       10.015519436456934        0.025754751868678        0.001505381573237       -0.102353348568973
