# total energy = -9507.842054017758 eV 

 CRYSTAL
 PRIMVEC
        8.364863528117699        0.000000000000000        0.000000000000000
       -4.182431764058849        7.244180936938131        0.000000000000000
        0.000000000000000        0.000000000000000       19.999945357962428
 PRIMCOORD
12 1
Se          4.142042020513333        7.238836625630016        8.002240002282974       -0.018404993089423       -0.031273884379540        3.278685585269878
Se         -0.013840503193624        7.223682002376124        7.958438230904338        0.003646083021361        0.000798842108975        3.331228415829240
Se          6.242747003729054        3.598941545141352        7.949179999951418       -0.017265736769865        0.015609174263227        3.343263755102204
Se          2.062794585219939        3.592770785316659        7.976032048363028        0.021743314924932        0.026287484681615        3.288696951230371
Se          4.162221417288564        7.219170831475411       12.061773518414011        0.043081680921110        0.009712089418863       -3.318015253672074
Se         -0.021334584428464        7.237647978522670       12.027840613025850       -0.059932441455415        0.014794391307533       -3.338281983392036
Se          6.232807872884945        3.597264390003964       12.037942858708757        0.001880762802430        0.026652324383139       -3.361896033812590
Se          2.044413634103253        3.606534331765824       12.036068292792107        0.008359431441613       -0.041989218699986       -3.304228221033020
Mo          2.066417407613967        1.193248618772343       10.019421823170440       -0.020966070092157        0.025057211269500        0.057709721779816
Mo          6.231414286621161        1.200833040533287        9.984438290923146       -0.005274106270163       -0.022766871550560       -0.020460333874470
Mo         -0.054138233240331        4.822303672614918        9.993830359692517        0.056958959321430       -0.015743128797754        0.007181351446981
Mo          4.152370117511500        4.817353346378978        9.986845698646539       -0.013827141866284       -0.007137899784149        0.036115788015269
