# total energy = -9392.047207499865 eV 

 CRYSTAL
 PRIMVEC
        4.381587621720000        0.000000000000000        0.000000000000000
       -2.190793810860000        3.794564420100063        0.000000000000000
        0.000000000000000        0.000000000000000       19.999905673320075
 PRIMCOORD
12 1
Se          2.173129440363036        3.786107079672619        8.349687448530856        0.824200396558727        0.298237815489589      -23.253260722538453
Se         -0.005629463776386        3.779640732660484        8.325376647770504       -0.918537813221842        0.194677847668148      -22.799229926737361
Se          3.266124359458809        1.884107214230281        8.375419198156930        0.194370600703158        0.066708843973643      -24.616026482160397
Se          1.079804587719347        1.885419499722987        8.400375406773962       -0.115576023812084       -0.699989061812617      -25.056867512853540
Se          2.178771610743524        3.780397871001517       11.616127282298427       -0.593189759671584       -0.105980662528874       27.075636395981324
Se         -0.017697232404127        3.786435698744248       11.631274430706714        0.765975425475279       -0.564078945347661       26.902472263623267
Se          3.276928478216446        1.884038861463383       11.612153182325528       -0.248641984689824       -0.102907164437248       27.018089425104304
Se          1.080582319522202        1.882704668032569       11.615424913802668       -0.031656978921662        0.787498910981744       26.757602619970850
Mo          1.089879172137968        0.618200826501048       10.032849796523912       -0.296491264332118       -0.327616024661705       -4.181824540561014
Mo          3.266282096613190        0.617359123518915       10.011271353804466        0.413232769727717       -0.560858894310391       -2.970957823773771
Mo         -0.023635598107844        2.520103858856945       10.008660803899446        0.537261041846988        0.253025203316731       -2.512237590822506
Mo          2.178605110413899        2.521767109518150       10.009266339308766       -0.530946409662753        0.761282388779072       -2.363396105232710
