# total energy = -9494.805045422989 eV 

 CRYSTAL
 PRIMVEC
        4.912722826541299        0.000000000000000        0.000000000000000
       -2.456361413270649        4.254540785855428        0.000000000000000
        0.000000000000000        0.000000000000000       20.000043430170312
 PRIMCOORD
12 1
Se          2.445438956610400        4.241188987757455        7.791379928892308        0.027628829799903        0.084956742589753       -2.767481400047940
Se         -0.012051400365788        4.237350677413078        7.835035366473520       -0.093814196936124        0.214403102820521       -2.100051260548772
Se          3.666819472309227        2.109575256578795        7.863143510125576       -0.071140142251138       -0.025528494689439       -2.161888376076696
Se          1.196824270650360        2.124147866299165        7.863536036679416        0.203434257615154       -0.224569506370879       -2.124528687796471
Se          2.444847464782085        4.243358937429938       12.194120367894593        0.001569402070544       -0.074334739355743        2.149572529323561
Se         -0.015344889748702        4.240744386341652       12.130852358245264        0.012209660145151        0.095171482901131        1.338354409755002
Se          3.673272333741888        2.117670932524653       12.195389324200690       -0.125867897252748        0.039828719748678        1.994291970100950
Se          1.212717911538786        2.123423239682250       12.200663132154981        0.211729411449028       -0.024296678614737        2.100777854626649
Mo          1.219514172297023        0.690298474892102        9.968486947261589       -0.123379582501974       -0.025525409364267        0.068211397332139
Mo          3.663076468787685        0.706374869069675        9.974728070340426        0.077525736914315       -0.073633342100100        0.304036684149329
Mo         -0.023490184195107        2.820844180128271        9.966473222174988        0.126212168119796       -0.142241460827202       -0.063878315239269
Mo          2.437607093880328        2.830261869786750       10.001263160143422       -0.246108161392771        0.155769326151855        1.262582937311087
