# total energy = -9517.883023135291 eV 

 CRYSTAL
 PRIMVEC
        6.373252033781299        0.000000000000000        0.000000000000000
       -3.186626016890650        5.519395592555450        0.000000000000000
        0.000000000000000        0.000000000000000       20.000010552493670
 PRIMCOORD
12 1
Se          3.155288736640547        5.504993954934714        7.677870108925602       -0.034182060464063       -0.064467098126154        3.337088219661116
Se         -0.023979998102306        5.513500334424202        7.700822101474858        0.030700785228944       -0.056730902369174        3.406770288658313
Se          4.758271880396729        2.756836843439761        7.704739102174821       -0.010120895004080        0.024335502289811        3.496197153200634
Se          1.577456357385277        2.742311564729570        7.673103553729538        0.005673912990296        0.095505212240509        3.377659731444820
Se          3.164253352951264        5.500509734803746       12.276251754274435        0.023750576059391        0.065891747024071       -3.447127884563464
Se         -0.023623733313617        5.496037623851642       12.276224349290690       -0.037894992197472        0.073800978101083       -3.510770943758410
Se          4.744159588418326        2.750867018259717       12.295388718156271        0.011391791864286       -0.044664709844495       -3.324036008633728
Se          1.559377353341050        2.754998797553218       12.273905122875597        0.016409559034787       -0.078958613346023       -3.421510172554484
Mo          1.568946153944569        0.914859297717594       10.022181006698377        0.043949685736012       -0.008273813668105        0.395999943093014
Mo          4.745237305337239        0.911533097481164        9.993904799400099       -0.055370531078995        0.004393245933714        0.006350884754999
Mo         -0.024465002582076        3.670116211978180        9.975283431607798       -0.007926971696748        0.021247348903621       -0.118385212380689
Mo          3.168000187821924        3.666776627912479        9.963181900646052        0.013619396638073       -0.032078897138858       -0.198235998922123
