# total energy = -9527.581150566739 eV 

 CRYSTAL
 PRIMVEC
        6.240481462007200        0.000000000000000        0.000000000000000
       -3.120240731003600        5.404412958134786        0.000000000000000
        0.000000000000000        0.000000000000000       20.000031670846408
 PRIMCOORD
12 1
Se          3.091555733915337        5.399829948549087        8.386010160593264       -0.031193151704221       -0.287704515354259       -2.974691324341656
Se         -0.031365283876194        5.398718518800703        8.422085135828834        0.462804689257403       -0.356961837919520       -3.496510827926399
Se          4.645109240774667        2.697154809323898        8.432910499020979        0.172295613322296       -0.038298655574070       -3.262813129925354
Se          1.535650189592977        2.683237911615475        8.395210502412700       -0.202200898877867        0.447624375193007       -2.810609875067484
Se          3.115135393119532        5.381003040026358       11.640132932786473        0.042374113015124        0.271732558272956        2.234258020408657
Se         -0.016219011319757        5.380952492126515       11.581521082799009       -0.138184001116314        0.533291256793055        3.359771787432047
Se          4.662381021317064        2.683954318887314       11.595326899937408       -0.264447848432731       -0.134291349191668        3.213949035412085
Se          1.549402962638949        2.686383114272327       11.568283773521800       -0.175673787274602       -0.331951934969316        3.462254205437359
Mo          1.539657826787878        0.880639270570362        9.964449459426785       -0.477090773242940        0.060408352863111        1.398719825176144
Mo          4.674229199420831        0.877538375331891        9.999584618154177       -0.017431830108261        0.075283733956395        0.421852654035886
Mo         -0.033671141776406        3.598246009789696       10.030109309177439        0.431667330516699       -0.449557588523352       -1.251000112396602
Mo          3.089658627550887        3.599203923694114       10.009201200087130        0.197080544645415        0.210425347343229       -0.295180515355113
