# total energy = -9513.675843056413 eV 

 CRYSTAL
 PRIMVEC
        8.630457589390799        0.000000000000000        0.000000000000000
       -4.315228794695400        7.474192033852167        0.000000000000000
        0.000000000000000        0.000000000000000       20.000041178044860
 PRIMCOORD
12 1
Se          4.274320425721687        7.443844755830592        8.466561747585233        0.010374148778569       -0.040319286450939        1.081092797867440
Se         -0.043454353962583        7.447747448752515        8.436660664221028       -0.015901251712791        0.001969208790678        1.234798298590025
Se          6.450247791028316        3.721164192216068        8.415810341730820       -0.011310544968105        0.027181457650043        1.297733275658123
Se          2.106924267742172        3.733353850515324        8.413638918601329        0.021779567495696        0.017387607114137        1.202534281940881
Se          4.289438398281023        7.461791792387730       11.577930602273785       -0.042974208760971        0.039507331709986       -1.182792314610496
Se         -0.010429907996779        7.446330327616336       11.595277822028462        0.057522802496513        0.003270444681737       -1.292226484447947
Se          6.427641170418665        3.716490799431412       11.592787071968164        0.006045180452594       -0.049281127632277       -1.321561241957231
Se          2.116102759388489        3.725800474033089       11.540004919442966       -0.032620628816878        0.002055340785048       -1.142449888220772
Mo          2.113434221901850        1.233297567798499        9.992805526477701       -0.022434427763336       -0.020611514807871        0.007717940916382
Mo          6.435230794822775        1.215402313986897       10.017292723796078        0.006389194209211       -0.008044728274125        0.208570295583894
Mo         -0.022341665561656        4.965949762111805        9.998586206971073        0.017591238575453        0.006604395639920       -0.023418132272167
Mo          4.263270850869990        4.973440999299395        9.981026677959699        0.005539187124476        0.020280870793664       -0.069998829048132
