# total energy = -38121.24382137156 eV 

 CRYSTAL
 PRIMVEC
       13.277745107833699        0.000000000000000        0.000000000000000
       -6.638872553916849       11.498859207011680        0.000000000000000
        0.000000000000000        0.000000000000000       20.000015178772852
 PRIMCOORD
48 1
Mo          1.629820639819903        0.952591906143867       10.000007589386426        0.198200003461789       -0.334507355542569        0.000000000000000
Se          1.642334914584036        2.847650110012367        8.330514374958828       -0.092855432139095        0.135393067388307       -0.005767244076733
Se          1.642334914584036        2.847650110012367       11.669498148265003       -0.092855432139095        0.135393067388307        0.005767244076733
Mo         -0.029898826433820        3.827307371784042       10.000007589386426        0.198202831676530       -0.334489357812402        0.000000000000000
Se         -0.017383223895176        5.722364247878032        8.330514374958828       -0.092852603924355        0.135404380247269       -0.005766472745440
Se         -0.017383223895176        5.722364247878032       11.669498148265003       -0.092852603924355        0.135404380247269        0.005766472745440
Mo         -1.689615637138521        6.702021509649707       10.000007589386426        0.198210802099889       -0.334489100701971        0.000000000000000
Se         -1.677101362374388        8.597079713518205        8.330514374958828       -0.092851061261769        0.135407208462009       -0.005767758297595
Se         -1.677101362374388        8.597079713518205       11.669498148265003       -0.092851061261769        0.135407208462009        0.005767758297595
Mo         -3.349333775617734        9.576735647515370       10.000007589386426        0.198213887425061       -0.334428165529835        0.000000000000000
Se         -3.336819500853601       11.471797834707402        8.330514374958828       -0.092851318372200        0.135382525860638       -0.005747960794411
Se         -3.336819500853601       11.471797834707402       11.669498148265003       -0.092851318372200        0.135382525860638        0.005747960794411
Mo          4.979457148026095        0.900281573742534       10.000007589386426       -0.568754498534563        0.946993253057263        0.000000000000000
Se          4.943475786558377        2.879340104261234        8.330514374958828        0.327762320496918       -0.600056150840646       -0.057177246077310
Se          4.943475786558377        2.879340104261234       11.669498148265003        0.327762320496918       -0.600056150840646        0.057177246077310
Mo          3.319739009546883        3.774997039382710       10.000007589386426       -0.568752184540684        0.947013050560447        0.000000000000000
Se          3.283757648079165        5.754054242126898        8.330514374958828        0.327762577607349       -0.600045609312977       -0.057174417862570
Se          3.283757648079165        5.754054242126898       11.669498148265003        0.327762577607349       -0.600045609312977        0.057174417862570
Mo          1.660020871067671        6.649711177248374       10.000007589386426       -0.568752698761546        0.947005851468380        0.000000000000000
Se          1.624039509599952        8.628769707767074        8.330514374958828        0.327761292055194       -0.600041752656513       -0.057173646531277
Se          1.624039509599952        8.628769707767074       11.669498148265003        0.327761292055194       -0.600041752656513        0.057173646531277
Mo          0.000302732588459        9.524426642888550       10.000007589386426       -0.568753212982408        0.947035676278371        0.000000000000000
Se         -0.035679956653771       11.503487828956269        8.330514374958828        0.327768491147260       -0.600058207724094       -0.057161562341022
Se         -0.035679956653771       11.503487828956269       11.669498148265003        0.327768491147260       -0.600058207724094        0.057161562341022
Mo          8.319481896548726        0.864622861480936       10.000007589386426       -1.223552545450521        1.987704029528611        0.000000000000000
Se          8.248787198271089        2.903801694073396        8.330514374958828        0.635873176535147       -1.014361328175873       -0.203551757082100
Se          8.248787198271089        2.903801694073396       11.669498148265003        0.635873176535147       -1.014361328175873        0.203551757082100
Mo          6.659763758069515        3.739336999346601       10.000007589386426       -1.223554602333969        1.987740024988945        0.000000000000000
Se          6.589069059791876        5.778515831939060        8.330514374958828        0.635872148093423       -1.014351043758634       -0.203547643315205
Se          6.589069059791876        5.778515831939060       11.669498148265003        0.635872148093423       -1.014351043758634        0.203547643315205
Mo          5.000045619590303        6.614052464986775       10.000007589386426       -1.223553059671383        1.987733854338602        0.000000000000000
Se          4.929350921312664        8.653231297579236        8.330514374958828        0.635871119651699       -1.014349501096049       -0.203546614873481
Se          4.929350921312664        8.653231297579236       11.669498148265003        0.635871119651699       -1.014349501096049        0.203546614873481
Mo          3.340327481111090        9.488767930626951       10.000007589386426       -1.223555373665262        1.987745681418426        0.000000000000000
Se          3.269632782833451       11.527948090993920        8.330514374958828        0.635870605430837       -1.014344101776999       -0.203530931137193
Se          3.269632782833451       11.527948090993920       11.669498148265003        0.635870605430837       -1.014344101776999        0.203530931137193
Mo         11.642027821411407        0.859236080290688       10.000007589386426       -1.501090143033560        2.290083122729579        0.000000000000000
Se         11.563667880883015        2.911692657990981        8.330514374958828        0.676822640652354       -0.966192974488765       -0.228787402990682
Se         11.563667880883015        2.911692657990981       11.669498148265003        0.676822640652354       -0.966192974488765        0.228787402990682
Mo          9.982309682932195        3.733950218156353       10.000007589386426       -1.501098113456920        2.290132487932322        0.000000000000000
Se          9.903951070178314        5.786406795856646        8.330514374958828        0.676811584903823       -0.966189117832301       -0.228783032113356
Se          9.903951070178314        5.786406795856646       11.669498148265003        0.676811584903823       -0.966189117832301        0.228783032113356
Mo          8.322591544452981        6.608665683796527       10.000007589386426       -1.501090914364853        2.290124774619394        0.000000000000000
Se          8.244232931699102        8.661122261496821        8.330514374958828        0.676810556462099       -0.966187832280146       -0.228784317665511
Se          8.244232931699102        8.661122261496821       11.669498148265003        0.676810556462099       -0.966187832280146        0.228784317665511
Mo          6.662873405973770        9.483381149436703       10.000007589386426       -1.501090400143991        2.290128888386289        0.000000000000000
Se          6.584514793219889       11.535837727136995        8.330514374958828        0.676809270909944       -0.966172919875151       -0.228766319935344
Se          6.584514793219889       11.535837727136995       11.669498148265003        0.676809270909944       -0.966172919875151        0.228766319935344
