# total energy = -9520.445843308296 eV 

 CRYSTAL
 PRIMVEC
        8.099322384569499        0.000000000000000        0.000000000000000
       -4.049661192284749        7.014215668096800        0.000000000000000
        0.000000000000000        0.000000000000000       19.999964538468078
 PRIMCOORD
12 1
Se          4.016163204834408        6.991370719378883        8.516062488748421       -0.021357135057638        0.011984431407635        0.112886648704303
Se         -0.036574110092000        7.007951652164574        8.524809756923757        0.013601398907906        0.013215476151044        0.189570863178106
Se          6.048969203728869        3.498904840337308        8.480014834611419       -0.022612862402419       -0.019395896690320        0.324257905323012
Se          1.997791818293728        3.475818531812331        8.503287427551241        0.010650028270983        0.016498262133467        0.223173396730798
Se          4.033385603952957        6.995871512827989       11.486825095168246       -0.032485902951058        0.021145276062532       -0.117515922013633
Se         -0.019499118640851        6.989495726246856       11.539073823871105       -0.008848455481287        0.003944588231699       -0.352332307499759
Se          6.030644486833780        3.503611356574981       11.485628825252045        0.012903858308727       -0.033245407164097       -0.171543308201324
Se          1.996553431901127        3.503424262227898       11.503970550724141       -0.025509211407117       -0.015082612100633       -0.210082619138767
Mo          2.005886281084867        1.155122118758348       10.003515193658188       -0.003745327647709       -0.005946450047108        0.017442371635930
Mo          6.026153412571537        1.159126423745279       10.002139118785051        0.046584810542861       -0.006139282870323       -0.014849670050189
Mo         -0.028399464009254        4.663886264234393       10.019521074554575       -0.017093729891556        0.013368971078324        0.082537076324043
Mo          4.011235577095636        4.655091210056988        9.992964206387809        0.047912528808308       -0.000347613302650       -0.083544949213383
