# total energy = -9517.568347012942 eV 

 CRYSTAL
 PRIMVEC
        5.709346257185899        0.000000000000000        0.000000000000000
       -2.854673128592950        4.944436592379419        0.000000000000000
        0.000000000000000        0.000000000000000       19.999925579116063
 PRIMCOORD
12 1
Se          2.833044983101478        4.930844922679562        7.784103846204607       -0.058154008604505       -0.175868419870835        2.107690268562852
Se         -0.022774011285289        4.924544659084757        7.758258777567577        0.049426909246628       -0.060683203913801        1.497203661759257
Se          4.260645319195035        2.456836175503599        7.747102714981036       -0.071348401700211        0.084386471653896        1.992127871603609
Se          1.394023099820421        2.461295745865087        7.754298204068967        0.112992835312287        0.145769530160755        1.875584598350275
Se          2.843216183458655        4.932043885393571       12.231542988765245       -0.043808532109418        0.189144059862722       -1.826199083883031
Se         -0.020517677644449        4.928286564621716       12.209732144193541        0.003313639234137       -0.023882216600039       -2.556455956958864
Se          4.246333700932147        2.468555179631099       12.263774532125559        0.197491664224511       -0.073137376078790       -1.430378603870823
Se          1.410235930386952        2.464384502190224       12.252854836474068       -0.186672457289959       -0.079773396301717       -1.606816780456652
Mo          1.389803322001735        0.821194113013697       10.016625516609629       -0.121159176820253        0.043726770992374        1.296230465189196
Mo          4.251926576525686        0.812597550354252       10.005948468174065       -0.011843534891472        0.005993244145542        0.542955009450898
Mo         -0.018991569389903        3.292839190839184       10.004278484393838        0.038264716997184        0.007662919284158        0.441085542712981
Mo          2.828633371248551        3.288679932090825        9.966775501634261        0.091496346401072       -0.063338640444696       -2.333026735349267
