# total energy = -9529.844240748833 eV 

 CRYSTAL
 PRIMVEC
        6.904334320877699        0.000000000000000        0.000000000000000
       -3.452167160438850        5.979326130238110        0.000000000000000
        0.000000000000000        0.000000000000000       19.999950931310131
 PRIMCOORD
12 1
Se          3.435420007110128        5.970746113977555        8.273990617416430       -0.000966478109957       -0.101760709025624        1.412518942005454
Se         -0.018848142262564        5.962777131304398        8.304205365271454       -0.139891728598712       -0.029769531248028        1.042808026256641
Se          5.137018746527424        2.978598869369848        8.323622424682060        0.085620601722476        0.148522925765843        0.916505869486012
Se          1.698135525321944        2.963740741911319        8.264046995127503        0.004379104860011        0.111610095414616        1.673374957717756
Se          3.434041211546250        5.961550231095577       11.711429451881983       -0.136235618270544        0.095729669646732       -1.065944622606913
Se         -0.027945293163752        5.966425381559549       11.669053409554165        0.099535675356146        0.106702371508563       -0.607995463838080
Se          5.151625556216674        2.972365636344960       11.688304764941067        0.005966504660722       -0.082033654100235       -0.711498353143849
Se          1.694414089122991        2.969857291686185       11.721395858474169        0.019407980880575        0.028811537782292       -1.029630602449378
Mo          1.699981744319347        0.979933551029036       10.021363022080848       -0.075513076460806        0.111130327350455       -0.567352475354570
Mo          5.148493750168724        0.990835494921702        9.969088926070619        0.216607310545091       -0.200893235226034        0.334399369161568
Mo         -0.033939636221139        3.980654597996408       10.032775196279829        0.216221644898659       -0.255651843479359       -0.701632511687276
Mo          3.432140448307712        3.970347117288770       10.038436750422946       -0.295131921483663        0.067602045610778       -0.695553135547365
