# total energy = -38122.675229925415 eV 

 CRYSTAL
 PRIMVEC
       53.110927513609894        0.000000000000000        0.000000000000000
       -1.659716484800309        2.874735173529163        0.000000000000000
        0.000000000000000        0.000000000000000       19.999981973800079
 PRIMCOORD
48 1
Mo          1.635402302184578        0.893262067665902        9.999996297992791       -0.830901465720685       -0.257821598406181        0.000000000000000
Se          1.588760285642126        2.798090794034272        8.314988389510500        0.267767658317212        0.016090742100404        0.136836999568545
Se          1.588760285642126        2.798090794034272       11.685009517567831        0.267767658317212        0.016090742100404       -0.136836999568545
Mo          4.932688015012022        0.871879608248923        9.999996297992791       -0.458710462754889       -0.070167750601269        0.000000000000000
Se          4.905160621281718        2.780781942757587        8.325557464085708        0.188713142780443        0.040476895145114        0.012831353167198
Se          4.905160621281718        2.780781942757587       11.674440442992623        0.188713142780443        0.040476895145114       -0.012831353167198
Mo          8.234084513629018        0.864205079223206        9.999996297992791       -0.128370095966794       -0.048894947764984        0.000000000000000
Se          8.230935035627462        2.778630950193286        8.337071913170659        0.015339208310725        0.031324792244869       -0.119867711125571
Se          8.230935035627462        2.778630950193286       11.662925993907672        0.015339208310725        0.031324792244869        0.119867711125571
Mo         11.543028075045699        0.871693720002625        9.999996297992791        0.226303716227665       -0.031885292984349        0.000000000000000
Se         11.564867288439295        2.792046770483223        8.347338255459039       -0.163475182877982        0.016280489598448       -0.238842991945299
Se         11.564867288439295        2.792046770483223       11.652659651619292       -0.163475182877982        0.016280489598448        0.238842991945299
Mo         14.861510359043825        0.892916846637064        9.999996297992791        0.541904199119589       -0.007598384565988        0.000000000000000
Se         14.904206233672014        2.818474768013996        8.354396697725598       -0.311640468034368       -0.001994662723342       -0.317449878221777
Se         14.904206233672014        2.818474768013996       11.645595898259982       -0.311640468034368       -0.001994662723342        0.317449878221777
Mo         18.189717253869691        0.923848650820990        9.999996297992791        0.763990532948312        0.022904682741551        0.000000000000000
Se         18.245165062193898        2.852885337950064        8.356908844596992       -0.398826358060493       -0.019260142382776       -0.336079328717423
Se         18.245165062193898        2.852885337950064       11.643089062481339       -0.398826358060493       -0.019260142382776        0.336079328717423
Mo         21.525975765306619        0.958583197414891        9.999996297992791        0.831026164279698        0.050302884484889        0.000000000000000
Se         21.583648921493648        2.888729902928999        8.354396697725598       -0.408752363357909       -0.032524469515701       -0.288000963681149
Se         21.583648921493648        2.888729902928999       11.645595898259982       -0.408752363357909       -0.032524469515701        0.288000963681149
Mo         24.867077993332792        0.990524109221576        9.999996297992791        0.743448180846368        0.072677405517813        0.000000000000000
Se         24.916009090851080        2.919189019858054        8.347338255459039       -0.340367416484876       -0.039625345397793       -0.182676446972070
Se         24.916009090851080        2.919189019858054       11.652659651619292       -0.340367416484876       -0.039625345397793        0.182676446972070
Mo         28.208907841065898        1.013584873947985        9.999996297992791        0.516339194748955        0.073010620636329        0.000000000000000
Se         28.239807778693315        2.938457664359992        8.337071913170659       -0.209754546228869       -0.040470981605202       -0.043890293226461
Se         28.239807778693315        2.938457664359992       11.662925993907672       -0.209754546228869       -0.040470981605202        0.043890293226461
Mo         31.547205812119351        1.023373217888744        9.999996297992791        0.183963284678995        0.058577726594718        0.000000000000000
Se         31.554216454551149        2.942871182436373        8.325557464085708       -0.043289426149321       -0.034977560137435        0.097241478980743
Se         31.554216454551149        2.942871182436373       11.674440442992623       -0.043289426149321       -0.034977560137435       -0.097241478980743
Mo         34.878365674514974        1.018030258580874        9.999996297992791       -0.169716024368533        0.032430367097972        0.000000000000000
Se         34.860164559656063        2.931585110339731        8.314988389510500        0.127695181085539       -0.023495265401453        0.212047714162550
Se         34.860164559656063        2.931585110339731       11.685009517567831        0.127695181085539       -0.023495265401453       -0.212047714162550
Mo         38.200167391482701        0.998575725832639        9.999996297992791       -0.485337847426225        0.006443187399711        0.000000000000000
Se         38.160254529456218        2.906761062819870        8.307372282505050        0.272468151215916       -0.007353358325289        0.280930941050772
Se         38.160254529456218        2.906761062819870       11.692630935666035        0.272468151215916       -0.007353358325289       -0.280930941050772
Mo         41.512164831231416        0.968706140198985        9.999996297992791       -0.706058924866583       -0.020805118962380        0.000000000000000
Se         41.458145706857323        2.873109979147246        8.304153760297723        0.366356653066585        0.010715591430877        0.295169459606582
Se         41.458145706857323        2.873109979147246       11.695838835687857        0.366356653066585        0.010715591430877       -0.295169459606582
Mo         44.815754811154719        0.934109682016619        9.999996297992791       -0.787919543646785       -0.041188576817995        0.000000000000000
Se         44.757932944370658        2.837042348272754        8.305959531833187        0.393470233562856        0.027479705749950        0.255851875394641
Se         44.757932944370658        2.837042348272754       11.694038375245146        0.393470233562856        0.027479705749950       -0.255851875394641
Mo         48.113964654120906        0.901372106297230        9.999996297992791       -0.724700459552483       -0.043895435435080        0.000000000000000
Se         48.063381806756944        2.805425413123902        8.312433753897096        0.347515600686264        0.040040835854215        0.167888740535741
Se         48.063381806756944        2.805425413123902       11.687569464273988        0.347515600686264        0.040040835854215       -0.167888740535741
Mo         51.410841412806491        0.876723324838164        9.999996297992791       -0.481914164927640       -0.035900843694991        0.000000000000000
Se         51.377131907113601        2.784271330695231        8.322349564063886        0.380106918914013        0.138197885079586        0.183719029769589
Se         51.377131907113601        2.784271330695231       11.677648343014447        0.380106918914013        0.138197885079586       -0.183719029769589
