# total energy = -9529.509614727467 eV 

 CRYSTAL
 PRIMVEC
        6.671972590841800        0.000000000000000        0.000000000000000
       -3.335986295420900        5.778095062983770        0.000000000000000
        0.000000000000000        0.000000000000000       19.999938398170332
 PRIMCOORD
12 1
Se          3.346293158679232        5.777650042411961        8.351211348354113        0.064715723912886       -0.112258013700620       -0.107651366109215
Se         -0.056566318019675        5.736080317184721        8.370484675577279        0.745373166642922        0.603894038243499       -0.862482339954785
Se          5.021774928425643        2.879193027975211        8.264256863972191       -0.289241007289641       -0.529757273919590        0.390628906190381
Se          1.685051380033455        2.857699268273814        8.514489195991711        0.368559575239000       -0.649515713112005       -2.878823586393502
Se          3.380569083470164        5.709978226014830       11.484171519427475       -0.618619781065968        0.440673908913023        3.259531886605517
Se         -0.069658729834684        5.804790959714246       11.750360541095255        1.113755335684564       -0.898919258898316       -0.016726061975292
Se          4.918646248089002        2.919865372888983       11.506668743806534        1.676420687882839       -0.845114530343832        2.112833248513228
Se          1.619463887873703        2.892079275837163       11.600913692638471        0.078152057924120        0.081307317132789        1.271887249586456
Mo          1.730506862097601        0.911775761530222       10.067470880181231       -0.765130560599163        0.491653765162614       -1.509057995288830
Mo          4.994247703910348        0.893193650667469       10.038699332777744       -0.693089246287531        0.815356311954766       -1.684511181813673
Mo          0.017366477456702        3.842064757197877        9.901533584268922       -1.472338769092111        0.376712032783695        2.365802915976873
Mo          3.335140956493640        3.819348692117838       10.013276448417599       -0.208556925841485        0.225967415783977       -2.341431675337158
