# total energy = -9523.587113544167 eV 

 CRYSTAL
 PRIMVEC
        7.302698953924899        0.000000000000000        0.000000000000000
       -3.651349476962450        6.324319861572811        0.000000000000000
        0.000000000000000        0.000000000000000       20.000054981792154
 PRIMCOORD
12 1
Se          3.666368937900987        6.318870587613392        8.500356187766490       -0.320374252263450       -0.214906782154760       -2.716791307254034
Se          0.027404108094499        6.332879355016707        8.742722542268723       -1.442392860088449       -0.901993528321235       -3.953805897758885
Se          5.509478139864812        3.156883730792195        8.518215668328208        0.404028987630851        0.154858898115846       -2.203890707408661
Se          1.820500776272369        3.194528413629782        8.516046766738894       -0.362849152567508       -0.208511674405637       -2.367410370391198
Se          3.592869463739419        6.298831251413927       11.192640020300297       -0.085765354895103       -0.492549023683197        4.450316736072654
Se         -0.010732776652583        6.349600344811508       11.391772936455503       -0.480417782219487        0.084709659465606        3.340991670223862
Se          5.451532684205209        3.084817046165387       11.222531427658504       -0.084873953030985        0.422734542814059        4.215725579324044
Se          1.798258946068400        3.160946222220263       11.183111458705216        1.896324411263193       -0.598496261856047        5.186415158139766
Mo          1.725850495130548        1.071451990519861       10.017376512800917        1.175869616257055       -0.366147108065357       -1.247240900785621
Mo          5.425649728302813        1.035763700732030        9.941787006198735        1.535236465147720        0.315061836539075       -0.921771491111953
Mo          0.055068922541652        4.176080528677351       10.177731367240886       -2.077316527802082        1.054492666901784       -2.321670167614022
Mo          3.666612848046048        4.159376335090143        9.935914175699990       -0.157470111652617        0.750746517539433       -1.460868044325522
