# total energy = -38122.09417967759 eV 

 CRYSTAL
 PRIMVEC
       13.277745107833699        0.000000000000000        0.000000000000000
       -6.638872553916849       11.498859207011680        0.000000000000000
        0.000000000000000        0.000000000000000       20.000015178772852
 PRIMCOORD
48 1
Mo          1.629302807760698        0.899411881437971       10.000007589386426       -0.065112702418280        1.010254246151811        0.000000000000000
Se          1.719908812602044        2.813996337262052        8.338182272758601       -0.346405397845404        0.209560942074361       -0.044546439046256
Se          1.719908812602044        2.813996337262052       11.661828922690718       -0.346405397845404        0.209560942074361        0.044546439046256
Mo          0.045115122327397        3.773094338508757       10.000007589386426       -1.067177981344200        0.280850465485883        0.000000000000000
Se         -0.000399660127746        5.698157590771940        8.333649250578786       -0.031047884310732        0.116541473480317       -0.002630496819092
Se         -0.000399660127746        5.698157590771940       11.666368583743088       -0.031047884310732        0.116541473480317        0.002630496819092
Mo         -1.635783675147831        6.709649574214157       10.000007589386426       -0.781688729463042       -0.276642853283318        0.000000000000000
Se         -1.754365888931383        8.633415590780304        8.324785027944795        0.283589205796407       -0.000316760050936        0.031479058503442
Se         -1.754365888931383        8.633415590780304       11.675228823053546        0.283589205796407       -0.000316760050936       -0.031479058503442
Mo         -3.384122795574769        9.623619365491132       10.000007589386426        0.717325246840563       -0.520906761554855        0.000000000000000
Se         -3.411740505399063       11.536097970941109        8.323836996944097        0.870937930697575       -0.393429095893903       -0.168047377671640
Se         -3.411740505399063       11.536097970941109       11.676178181828755        0.870937930697575       -0.393429095893903        0.168047377671640
Mo          5.024269537765035        0.898378872868582       10.000007589386426       -1.531853663207657        0.686724220458830        0.000000000000000
Se          4.978754755309891        2.823443452906275        8.333649250578786       -0.019674861507905        0.221298033247418       -0.003068870103869
Se          4.978754755309891        2.823443452906275       11.666368583743088       -0.019674861507905        0.221298033247418        0.003068870103869
Mo          3.343370740289806        3.834935436348492       10.000007589386426       -0.467526522321876       -0.317041843967853        0.000000000000000
Se          3.224789854280765        5.758701452914639        8.324785027944795        0.231760885124667        0.014594359392251        0.025494556112553
Se          3.224789854280765        5.758701452914639       11.675228823053546        0.231760885124667        0.014594359392251       -0.025494556112553
Mo          1.595031619862868        6.748903899850956       10.000007589386426        0.125038459002490       -0.535002583821486        0.000000000000000
Se          1.567413910038574        8.661386488624467        8.323836996944097        0.150320127678212       -0.190331395832868        0.034494449637672
Se          1.567413910038574        8.661386488624467       11.676178181828755        0.150320127678212       -0.190331395832868       -0.034494449637672
Mo         -0.098275230415631        9.586035380188898       10.000007589386426        0.645926451495885        0.147002117566749        0.000000000000000
Se          0.003389808326030       11.492848371801362        8.332116998793342        0.233937067812263       -0.096290170386212       -0.178449551487183
Se          0.003389808326030       11.492848371801362       11.667898179979510        0.233937067812263       -0.096290170386212        0.178449551487183
Mo          8.322525155727442        0.960219970708317       10.000007589386426       -0.393044458689196       -0.416986067798785        0.000000000000000
Se          8.203944269718400        2.883987315048975        8.324785027944795        0.258298795366032       -0.013852338688517        0.034676998043650
Se          8.203944269718400        2.883987315048975       11.675228823053546        0.258298795366032       -0.013852338688517       -0.034676998043650
Mo          6.574186035300506        3.874188434210781       10.000007589386426        0.196398687782524       -0.491361944823482        0.000000000000000
Se          6.546568325476211        5.786672350758803        8.323836996944097        0.142216264004968       -0.195635326913022        0.028855760776417
Se          6.546568325476211        5.786672350758803       11.676178181828755        0.142216264004968       -0.195635326913022       -0.028855760776417
Mo          4.880877857247495        6.711321242323233       10.000007589386426        0.549265013647375        0.025710528874554        0.000000000000000
Se          4.982544223763667        8.618130250612166        8.332116998793342       -0.095254786680760       -0.109287616891807       -0.007129158029497
Se          4.982544223763667        8.618130250612166       11.667898179979510       -0.095254786680760       -0.109287616891807        0.007129158029497
Mo          3.289020946239910        9.523555622809475       10.000007589386426        0.081566484447191        0.671862209107955        0.000000000000000
Se          3.379626951081256       11.438138750859045        8.338182272758601       -0.652825752800109        0.272705207033255       -0.097767526922475
Se          3.379626951081256       11.438138750859045       11.661828922690718       -0.652825752800109        0.272705207033255        0.097767526922475
Mo         11.553337795189121        0.999474296345117       10.000007589386426        1.362879145321996       -0.800644967316431        0.000000000000000
Se         11.525718757590315        2.911958212893138        8.323836996944097        0.460606137962314       -0.158601911769677        0.212760424277154
Se         11.525718757590315        2.911958212893138       11.676178181828755        0.460606137962314       -0.158601911769677       -0.212760424277154
Mo          9.860033600459644        3.836607104457569       10.000007589386426        0.557871785323566        0.083214562309607        0.000000000000000
Se          9.961698639201304        5.743414784971991        8.332116998793342       -0.102720245153945       -0.045120052417715        0.046054648834233
Se          9.961698639201304        5.743414784971991       11.667898179979510       -0.102720245153945       -0.045120052417715       -0.046054648834233
Mo          8.268175361677548        6.648840157169300       10.000007589386426        0.101115876064791        0.603835417065241        0.000000000000000
Se          8.358781366518894        8.563424612993380        8.338182272758601       -0.623726508445579        0.032348091760067       -0.240088949093703
Se          8.358781366518894        8.563424612993380       11.661828922690718       -0.623726508445579        0.032348091760067        0.240088949093703
Mo          6.683987676244247        9.522522614240087       10.000007589386426       -0.587444112871052        0.120498917233563        0.000000000000000
Se          6.638472893789104       11.447588522052291        8.333649250578786       -0.481780467503544        0.200133731012996        0.108336308297276
Se          6.638472893789104       11.447588522052291       11.666368583743088       -0.481780467503544        0.200133731012996       -0.108336308297276
