# total energy = -9526.104080745947 eV 

 CRYSTAL
 PRIMVEC
        7.302698953924899        0.000000000000000        0.000000000000000
       -3.651349476962450        6.324319861572811        0.000000000000000
        0.000000000000000        0.000000000000000       20.000054981792154
 PRIMCOORD
12 1
Se          3.682778832720352        6.315779355146196        8.266401081919389        0.062818248932445       -0.371511717207216        1.077305561219485
Se         -0.076350447833180        6.321286320427350        8.147162613399704        0.459483079599906       -0.199303521431445        2.365747123013356
Se          5.415628234528342        3.196051026361676        8.435370930315305        0.583529092338913        0.064948151742469        0.404644510002555
Se          1.791536081411417        3.099728427159406        8.160440380637731        0.126458479912650        0.079658467939080        2.823364866436689
Se          3.617393387366490        6.261822633655227       11.498978747908806        0.189922590247651        0.397961952791625       -0.432570559460641
Se         -0.058247787396296        6.342280849649989       11.793820836554152        0.236558051545410       -0.082293078525068       -2.248752106732836
Se          5.477948737131241        3.123861656392442       11.596553759981674       -0.078632083098711       -0.486683820532271       -0.124066838683914
Se          1.840515283295391        3.149047204544738       11.819123958159606       -0.102726672914719       -0.177166827547153       -2.052973569309773
Mo          1.869429589533561        0.979634426302268        9.925502717801377       -0.287887577981099        0.629031982188318        0.091367276964733
Mo          5.514563739416325        1.022591822628836        9.804800058141430       -0.845626694322292       -0.120043574660343        1.141827423867432
Mo         -0.032526951410677        4.233121910206458       10.194754688772379        0.454470454638024        0.034958791075975       -1.830934286689913
Mo          3.665318809791413        4.142253696852875       10.074949530813869       -0.798367226008608        0.230443451276458       -1.214959657737602
