# total energy = -9519.229527099109 eV 

 CRYSTAL
 PRIMVEC
        8.099322384569499        0.000000000000000        0.000000000000000
       -4.049661192284749        7.014215668096800        0.000000000000000
        0.000000000000000        0.000000000000000       19.999964538468078
 PRIMCOORD
12 1
Se          4.034350233248959        6.988915814764121        8.338952176368325       -0.001328232486309        0.008646109572127        1.650474388743099
Se         -0.029844383122662        6.998835864820741        8.337687062211856       -0.044199339964468        0.001694871960850        1.779257661172437
Se          6.061186221613753        3.477586613888883        8.321336960114126       -0.035548088183722        0.033723889676103        1.908362064530036
Se          2.007672181670664        3.491371660587420        8.378576491270355       -0.022822407403646       -0.017462169139114        1.476800149290028
Se          4.007227222447513        6.998611513590689       11.634395558947341        0.006313346632079       -0.018845937478509       -1.573519951206364
Se         -0.023008555030085        7.003499454649776       11.680955323607277       -0.004038176428566       -0.048295109129568       -1.762171644593809
Se          6.051608772893999        3.486673243672131       11.687096229839257        0.009239263336338        0.019923487294638       -1.769286404439173
Se          1.998153858004318        3.493240984193779       11.634761648319124       -0.026860069611350        0.019166554185909       -1.497905830346193
Mo          1.991976504821607        1.145480685391757        9.964024517575504        0.041351327720789        0.021624272795400        0.027447052725219
Mo          6.053393053615321        1.142651592082826       10.023510800761212       -0.021329110020664        0.034427086704762       -0.092676740389582
Mo         -0.046918564641573        4.666855475820576       10.039213767000415        0.089957540471811       -0.037064011284628       -0.087343755830731
Mo          4.021567072729393        4.661394102736661       10.002870487596375        0.009264203048140       -0.017538788047538       -0.059437246765397
