# total energy = -9529.870376478475 eV 

 CRYSTAL
 PRIMVEC
        6.705204922078999        0.000000000000000        0.000000000000000
       -3.352602461039500        5.806875092643465        0.000000000000000
        0.000000000000000        0.000000000000000       20.000050559404965
 PRIMCOORD
12 1
Se          3.329348139849237        5.797127736248239        8.270161531224183        0.135366585013918       -0.082527049017236        1.221246779105724
Se         -0.024103200133397        5.793592752213319        8.229860567560518       -0.000753333562696       -0.088255212308464        1.521168667918063
Se          4.999710570369502        2.885342880319010        8.208425368465615        0.002180296454491        0.135968994753644        1.761059127759070
Se          1.653768389379103        2.891858998462287        8.248617037289049        0.075581467835440       -0.066589544733680        1.474647877872510
Se          3.312241821052029        5.800477656627310       11.792648405210459        0.062558567397181        0.036309906390640       -1.644627183322340
Se         -0.026728287860391        5.795541955284167       11.796311458659391        0.150288245984774       -0.069474066658555       -1.768950618216346
Se          4.997058661822820        2.884947273228608       11.808046908314013        0.071902217568486       -0.004780454242731       -1.894773778254108
Se          1.641963205593291        2.894587346345080       11.754886702650788        0.059011986112599       -0.078429222968688       -1.192945605528876
Mo          1.668204695576339        0.946801755817243       10.023345982421473       -0.195112107186030        0.063238881597486       -0.091247463503908
Mo          5.009804585859199        0.955910106183395        9.962818768110360       -0.209677670210014        0.094206033232898        0.851864450487671
Mo         -0.010236836354538        3.845740780156753       10.004584148529004       -0.427497513547484        0.203596751407517        0.046508705855298
Mo          3.317721314514352        3.865726984467994       10.034346541616635        0.276151001028903       -0.143265017452830       -0.283951217283190
