# total energy = -9529.552893636672 eV 

 CRYSTAL
 PRIMVEC
        6.705204922078999        0.000000000000000        0.000000000000000
       -3.352602461039500        5.806875092643465        0.000000000000000
        0.000000000000000        0.000000000000000       20.000050559404965
 PRIMCOORD
12 1
Se          3.323157894665174        5.793645052811711        8.488714333056885        0.092621718757358       -0.045553283493873       -2.527838794662373
Se         -0.021915962287815        5.803099391751843        8.453813070916972        0.093526747474317       -0.162700252039086       -1.982899664015802
Se          5.006525070131810        2.894014051324243        8.436022821217712       -0.118900975905183        0.095491842498099       -1.655691673608021
Se          1.653105244612310        2.892782975700549        8.464187363972414       -0.031280826361176        0.048949712286777       -2.013342824592929
Se          3.329668648644513        5.796473308247844       11.523347259925000        0.061119006094269        0.146567343828006        2.822731860555680
Se         -0.019122573917277        5.795444729812798       11.542479891649661        0.029740734879761        0.036422006538536        2.373803935477735
Se          5.010182759416804        2.893961750725851       11.522787375314007       -0.108567964795566       -0.041597896624074        2.775742101084066
Se          1.654410077490146        2.890851876682990       11.528896487518514       -0.127422129807866       -0.122182990556313        2.642426485977869
Mo          1.662540808978659        0.948481409650224       10.001463546158270       -0.045208241295532        0.201796464169976       -0.166151445353784
Mo          5.011627731077513        0.962351796552036       10.007245444362576       -0.328368072672246        0.029424746160118       -0.435202341831888
Mo         -0.032653677450033        3.859064692857416       10.017594928159808        0.215002684345506        0.145090244402174       -0.858111462628564
Mo          3.321484946037115        3.866187632046140       10.027489128542827        0.267737576396790       -0.331707937170340       -0.975466433512420
