# total energy = -9512.612091893463 eV 

 CRYSTAL
 PRIMVEC
        5.443805113637699        0.000000000000000        0.000000000000000
       -2.721902556818850        4.714471323538089        0.000000000000000
        0.000000000000000        0.000000000000000       19.999957500357748
 PRIMCOORD
12 1
Se          2.701649968654583        4.703529275259677        8.239498993152420       -0.017387607114137        0.316349445577293       -3.272647089688489
Se         -0.024132932449267        4.703356706637575        8.216271365493549        0.239811784049135       -0.080507446582091       -2.668802416647733
Se          4.066010157826168        2.354659108808760        8.259767368351516        0.095852825543159       -0.233254696728511       -3.414498771102364
Se          1.345809334485842        2.352559433176430        8.206812209728094       -0.255175160740370       -0.235068096598030       -2.660336027266843
Se          2.699277014005549        4.703917962944791       11.772705979949992        0.110109084718705       -0.123519964797274        3.634205290782176
Se         -0.032131515302735        4.706980647701723       11.763417759665103        0.217623153857790       -0.097224252581869        4.057426800752462
Se          4.053450755048495        2.348034542365974       11.766892540469138       -0.205270026092167        0.111650718862707        3.717022103255097
Se          1.329241658002997        2.346521708924894       11.789304141741471        0.337600908247809       -0.082795215196721        3.330749161985941
Mo          1.351978798821127        0.765091423988540       10.014389046695184       -0.399132833694190        0.723452959741494       -0.756568269027528
Mo          4.066289969409009        0.773747074119224       10.030842403270643       -0.274292092613104       -0.109583550997835       -1.087706449482873
Mo         -0.017992864661595        3.125181272778665       10.034206130450359        0.305192652646899        0.221137082117641       -1.195116131786991
Mo          2.692155972536399        3.139662883141964        9.992967129192509       -0.154932688809530       -0.410636725706372        0.316271541116714
