# total energy = -9523.851117965209 eV 

 CRYSTAL
 PRIMVEC
        5.974940318459000        0.000000000000000        0.000000000000000
       -2.987470159229500        5.174447689293456        0.000000000000000
        0.000000000000000        0.000000000000000       20.000067101485772
 PRIMCOORD
12 1
Se          2.959573760376647        5.160763880976121        7.986891531798208        0.092942078354327       -0.051629317198181        2.485649801157536
Se         -0.010277494841781        5.160821837897210        7.940034854832789       -0.087933310048909        0.001608997076911        2.637392006629356
Se          4.463564227554000        2.564137870244266        7.979153386591771       -0.002022173539454        0.084326822033915        2.523337048126797
Se          1.466587340783799        2.571664502563429        7.989381289428910        0.065562131451587        0.026036544901004        2.482767336116109
Se          2.965280425874807        5.154683781708056       12.070353358559089       -0.010483677822156        0.026106221827793       -2.675734628087119
Se         -0.029118871642010        5.162438656747384       12.053298488914077        0.066411881425891        0.006760975892371       -2.638750835256948
Se          4.457806177569100        2.568506746605123       12.045253231775273        0.042984236067779       -0.004333082092870       -2.630562382251921
Se          1.467884500326937        2.568641182762288       12.022973874315804        0.030355485920172        0.018650533550984       -2.558419766430492
Mo          1.471931924898661        0.855643120787017        9.973141539357567        0.058869289823420       -0.199347487315138        0.144817707345362
Mo          4.469232055940090        0.849864158511003       10.005608767554040       -0.124179967273534       -0.088793087330020        0.096453692620299
Mo         -0.014023184927423        3.437263666403093       10.015293548316230       -0.124227789813691        0.093564799818098        0.071224217362060
Mo          2.971887514878959        3.429241711531531       10.008488091293506       -0.008277927435000        0.087047821724703        0.061826059779392
