# total energy = -38121.40872420086 eV 

 CRYSTAL
 PRIMVEC
       13.277745107833699        0.000000000000000        0.000000000000000
       -6.638872553916849       11.498859207011680        0.000000000000000
        0.000000000000000        0.000000000000000       20.000015178772852
 PRIMCOORD
48 1
Mo          1.681392729593240        0.859157741594552       10.000007589386426       -0.756966533085076        1.869398007160656        0.000000000000000
Se          1.616199001113777        2.903722027602749        8.326635945612828        0.432315763023565       -0.862898601742500       -0.065490911862213
Se          1.616199001113777        2.903722027602749       11.673377905385513        0.432315763023565       -0.862898601742500        0.065490911862213
Mo          0.021152775731290        3.777819887992635       10.000007589386426       -1.240451899856277        1.187158049728098        0.000000000000000
Se         -0.016953024953682        5.747880090651755        8.321073898187157       -0.162900283954369       -0.271072555796696        0.192116513554983
Se         -0.016953024953682        5.747880090651755       11.678938625036674       -0.162900283954369       -0.271072555796696       -0.192116513554983
Mo         -1.682249144152695        6.734720612526769       10.000007589386426       -0.083577859348545       -1.298241325869689        0.000000000000000
Se         -1.657422416350068        8.580081544231158        8.324365451199387       -0.449782045929574        0.530449672310150        0.046272164258820
Se         -1.657422416350068        8.580081544231158       11.675648399798952       -0.449782045929574        0.530449672310150       -0.046272164258820
Mo         -3.387840564204962        9.652777293747935       10.000007589386426        1.304085445965277       -2.475706569461246        0.000000000000000
Se         -3.323262923098503       11.440198129125269        8.333424856686463       -0.021525542389913        0.743321168293476       -0.657703394785741
Se         -3.323262923098503       11.440198129125269       11.666587666537366       -0.021525542389913        0.743321168293476        0.657703394785741
Mo          4.925756635711973        1.020397367086041       10.000007589386426       -0.037098978303238       -2.115832955911170        0.000000000000000
Se          4.980973466517410        2.816674458450302        8.329687171438607       -0.518168021244331        0.968009459683456       -0.195544309820464
Se          4.980973466517410        2.816674458450302       11.670328007334243       -0.518168021244331        0.968009459683456        0.195544309820464
Mo          3.241676490508907        3.890316911193267       10.000007589386426        1.378178758626354       -2.000873482912514        0.000000000000000
Se          3.300954983542831        5.703088945304989        8.338123850680127       -0.101535223177677        0.745483724128232       -0.285874403306727
Se          3.300954983542831        5.703088945304989       11.661888672543704       -0.101535223177677        0.745483724128232        0.285874403306727
Mo          1.607205984352241        6.692962104162631       10.000007589386426        1.017014450712889        0.202413014983404        0.000000000000000
Se          1.615054459485481        8.619557608211258        8.339423741926183        0.477114170292157       -0.208186429710480       -0.286553431954877
Se          1.615054459485481        8.619557608211258       11.660588781297648        0.477114170292157       -0.208186429710480        0.286553431954877
Mo         -0.001333085608827        9.495929946338117       10.000007589386426       -0.876772023486355        1.873057717034858        0.000000000000000
Se         -0.052174899401233       11.526917737973553        8.332367948175881        0.097739244775070       -0.626272673043318        0.250658244689367
Se         -0.052174899401233       11.526917737973553       11.667648558371482        0.097739244775070       -0.626272673043318       -0.250658244689367
Mo          8.277103317488056        0.894711559669798       10.000007589386426        0.508048154681976        1.241189549682684        0.000000000000000
Se          8.246109077082838        2.893642891291392        8.335841406296089        0.684357518941897       -0.719291884526931       -0.275894404818811
Se          8.246109077082838        2.893642891291392       11.664177755800296        0.684357518941897       -0.719291884526931        0.275894404818811
Mo          6.660531211736749        3.733869223911194       10.000007589386426       -1.369101989082379        2.280221652150332        0.000000000000000
Se          6.595340138806305        5.778444132115478        8.326641256710872        0.381725943297732       -0.819445139138230       -0.063767500643527
Se          6.595340138806305        5.778444132115478       11.673377905385513        0.381725943297732       -0.819445139138230        0.063767500643527
Mo          5.000323124463057        6.652487553750421       10.000007589386426       -1.538900031678386        1.038214748407645        0.000000000000000
Se          4.962184129415315        8.622622111782146        8.321075225961668       -0.203582867444246       -0.263517365783108        0.198199489240927
Se          4.962184129415315        8.622622111782146       11.678938625036674       -0.203582867444246       -0.263517365783108       -0.198199489240927
Mo          3.296938465647711        9.609388278284555       10.000007589386426       -0.037901934179108       -1.306986422957733        0.000000000000000
Se          3.321728015764037       11.454818254263506        8.324361467875857       -0.162624661572386        0.488426515033278       -0.096107364869804
Se          3.321728015764037       11.454818254263506       11.675657694220527       -0.162624661572386        0.488426515033278        0.096107364869804
Mo         11.615777719333220        0.953368654232675       10.000007589386426       -0.673706205118759       -0.212989766781566        0.000000000000000
Se         11.615208104068092        2.846027569560190        8.322023256962368       -0.245719667531599        0.338174778729699        0.274596511363354
Se         11.615208104068092        2.846027569560190       11.677987938486952       -0.245719667531599        0.338174778729699       -0.274596511363354
Mo          9.904938934414337        3.895090260559534       10.000007589386426        0.688565388254893       -2.084427945211843        0.000000000000000
Se          9.960134520827602        5.691395235188520        8.329680532566055       -0.423381946879201        1.105684125036050       -0.088137455731087
Se          9.960134520827602        5.691395235188520       11.670338629530331       -0.423381946879201        1.105684125036050        0.088137455731087
Mo          8.220829578172033        6.765060260098169       10.000007589386426        1.440896220269865       -1.774820706465461        0.000000000000000
Se          8.280127987823619        8.577784494327503        8.338119867356593       -0.304993392062910        0.829469103509840       -0.360816951721247
Se          8.280127987823619        8.577784494327503       11.661897966965281       -0.304993392062910        0.829469103509840        0.360816951721247
Mo          6.586332516525151        9.567730680783239       10.000007589386426        0.623991075079031        0.104448541470819        0.000000000000000
Se          6.594220824893715       11.494247846135728        8.339426397475204        0.347809735019275       -0.241444949506555       -0.184656711511279
Se          6.594220824893715       11.494247846135728       11.660588781297648        0.347809735019275       -0.241444949506555        0.184656711511279
