# total energy = -38121.258340420136 eV 

 CRYSTAL
 PRIMVEC
       13.277745107833699        0.000000000000000        0.000000000000000
       -6.638872553916849       11.498859207011680        0.000000000000000
        0.000000000000000        0.000000000000000       20.000015178772852
 PRIMCOORD
48 1
Mo          1.634851577441262        0.943875066480574        9.913404824695091       -0.110067175718460       -0.057897412394413        2.102938096467526
Se          1.618599617429273        2.823898879563474        8.323645797414544        0.286172908517065        0.841609858059495        0.078655480147928
Se          1.651329259120083        2.896934444303624       11.662628242946210       -0.467088663257961       -0.819131721522897        0.423986156391943
Mo         -0.024865233263440        3.818589204346238       10.020796554901761       -0.004452895553695        0.012352099323900       -0.541271707459441
Se         -0.009952997732832        5.721673805132424        8.297661250238512       -0.175646276458490        0.219728888287305        0.826059047864095
Se         -0.039554402676237        5.748589122240514       11.636647679093713        0.354255493523296       -0.360668341892155        1.082288361371377
Mo         -1.684584699517163        6.693304669986414       10.099456572469590       -0.122456298944417       -0.048948426734622       -2.828963188960285
Se         -1.658959979233555        8.638046868273916        8.317077296909698       -0.560699485843200       -0.565475312098173        0.198716281207145
Se         -1.709985025908449        8.581645662604860       11.656067709088431        0.522394402508356        0.707003548589908        0.532712758323408
Mo         -3.344301510221865        9.568020135626588       10.040677322651721        0.024478969910284        0.043734741415734       -1.278616858006250
Se         -3.343223357319109       11.515448421749406        8.355063597888700        0.343766930602952       -0.555622840384010       -0.416181826370761
Se         -3.345157924781320       11.453677695958742       11.694048698969389       -0.190040861045890        0.497703573602966       -0.242922563153249
Mo          4.954287854399686        0.943875066480574       10.020796554901761       -0.003807548372000       -0.002393698112183       -0.107053070136384
Se          4.969200089930294        2.846959667266760        8.297661250238512       -0.172184284505692        0.220351352640645        0.829426680288732
Se          4.939600012761400        2.873873656600338       11.636647679093713        0.347016549339782       -0.357361644639654        1.102150656383447
Mo          3.294569715920474        3.818589204346238       10.099456572469590       -0.051760186407537        0.013648707227202       -3.223612788069927
Se          3.320194436204082        5.763332730408252        8.317077296909698       -0.562572535332701       -0.592139977781999        0.212911090989694
Se          3.269169389529188        5.706931524739196       11.656067709088431        0.526427950949165        0.742518726638469        0.564561541626562
Mo          1.634851577441262        6.693304669986414       10.040677322651721        0.001364227946643        0.019121045639630       -1.301805133553144
Se          1.635931058118528        8.640732956109231        8.355063597888700       -0.102005221045461       -0.731289428566546       -0.847200981491024
Se          1.633997818430828        8.578959574769545       11.694048698969389        0.066102577577453        0.572727368913666       -0.539728016431993
Mo         -0.024865233263440        9.568020135626588        9.925693377792392       -0.036658548135013       -0.002219120129565        2.306131698719307
Se         -0.049669388899384       11.475447886837546        8.359122604568165        0.396079390216179        0.583412107092829       -0.215270336304129
Se          0.000160660715805       11.493667608674516       11.698107705648853       -0.471311959196814       -0.522039075892777        0.002021402208162
Mo          8.273725459132622        0.943875066480574       10.099456572469590       -0.043374272591536       -0.092328355755639       -2.514044048710390
Se          8.299348851641719        2.888617264768077        8.317077296909698       -0.560570159296430       -0.598227324345269        0.218023217688355
Se          8.248323804966825        2.832216059099021       11.656067709088431        0.508563661096039        0.752837853784814        0.551197455646427
Mo          6.614007320653410        3.818589204346238       10.040677322651721        0.007413265055701        0.022145692749375       -1.280986901958786
Se          6.615084145781655        5.766017490469056        8.355063597888700       -0.102510185931855       -0.748843386129510       -0.865362491002334
Se          6.613152233868465        5.704245436903881       11.694048698969389        0.063980388080357        0.592730303331469       -0.553483938708902
Mo          4.954287854399686        6.693304669986414        9.925693377792392       -0.035336486299047       -0.005149664821581        2.404049635243890
Se          4.929485026538253        8.600733748971882        8.359122604568165        0.579738513255355        0.258154556414266       -0.986704730449426
Se          4.979315076153442        8.618957454132383       11.698107705648853       -0.410752425400302       -0.210380867238674       -0.700047940101305
Mo          3.294569715920474        9.568020135626588        9.913404824695091        0.001526978849437        0.042066608939703        2.802585972738266
Se          3.278317755908485       11.448047932033022        8.323645797414544        0.022162404927387        0.867707595243066        0.065605068893557
Se          3.311047397599296       11.521078185675128       11.662628242946210        0.014486887232112       -0.835604529723699        0.395054548038395
Mo         11.593157752767514        0.943875066480574       10.040677322651721       -0.012858863983310        0.065869121306147       -1.512586578843244
Se         11.594238561219292        2.891303352603392        8.355063597888700        0.262661445158462       -0.521196267900110       -0.369812217258609
Se         11.592307977080614        2.829531299038217       11.694048698969389       -0.150466680623856        0.494320257442040       -0.205158440165133
Mo          9.933443597611834        3.818589204346238        9.925693377792392       -0.037448134268474       -0.026914577022713        2.276389421176961
Se          9.908639441975890        5.726019611106218        8.359122604568165        0.795955530166258        0.371363878709417       -0.717519365215934
Se          9.958469491591078        5.744243316266719       11.698107705648853       -0.700970966548431       -0.368389625244139       -0.334216049424298
Mo          8.273725459132622        6.693304669986414        9.913404824695091       -0.029794985180692        0.041284736119172        2.792077355204308
Se          8.257472171346123        8.573328483069314        8.323645797414544        0.225821377059195        0.763135640765390       -0.181003172287420
Se          8.290201813036933        8.646364047809463       11.662628242946210       -0.288132861332229       -0.655172399703428        0.045422414284517
Mo          6.614007320653410        9.568020135626588       10.020796554901761       -0.000026225263957       -0.008452762528049       -0.515814432359377
Se          6.628918228409506       11.471108719736307        8.297661250238512       -0.457171913936059       -0.060127588272509        0.169006142468668
Se          6.599318151240612       11.498018725746352       11.636647679093713        0.509795220060309        0.000446857928998        0.297396807269938
