# total energy = -9478.917730159883 eV 

 CRYSTAL
 PRIMVEC
        5.974940318459000        0.000000000000000        0.000000000000000
       -2.987470159229500        5.174447689293456        0.000000000000000
        0.000000000000000        0.000000000000000       20.000067101485772
 PRIMCOORD
12 1
Se          2.954509400962721        5.162944734192358        8.814863508982377        1.353534723819398       -0.165907190444378      -23.034553076882897
Se         -0.034273452654745        5.171793023309964        8.871342827330675       -0.475050344862888        0.361091031440644      -25.993000678417733
Se          4.469102399735180        2.569972399465241        8.849504420466708       -0.655477332674540        0.322723984491940      -25.691724074744695
Se          1.474300391240898        2.579032201470120        8.801773609732697        0.305987123878548       -0.820785712925225      -22.811892615461854
Se          2.956420784370596        5.168962694081110       11.186052034028615       -0.597619258176063       -0.476294502238275       22.815740530171510
Se         -0.036916766251631        5.170872882500921       11.165267606636823        1.503331888881049       -0.971017651725620       24.191004684952567
Se          4.451194308612694        2.572798546235872       11.188355971015412        1.081568195054274       -0.172310268616860       23.130617247200298
Se          1.483124183103199        2.574179952437500       11.182054798955567       -1.049891161518997        1.200807014065731       23.066518588321703
Mo          1.474095450787975        0.853969540003816       10.024465081705065       -2.741054818623179        1.033256630857125       -0.718012760132935
Mo          4.457444693679833        0.853823153966014        9.975222013576452        0.751014940829349       -0.426237415325378        2.176732389697404
Mo         -0.026574742054410        3.441017721405181        9.969619312039834        1.467455470676999       -1.266687962451701        2.615868006902028
Mo          2.973482226449955        3.427621307717164        9.995941911612805       -0.943799427283951        1.381361785761567        0.252702015505022
