# total energy = -38122.300511313275 eV 

 CRYSTAL
 PRIMVEC
       13.277745107833699        0.000000000000000        0.000000000000000
       -6.638872553916849       11.498859207011680        0.000000000000000
        0.000000000000000        0.000000000000000       20.000015178772852
 PRIMCOORD
48 1
Mo          1.634851577441262        0.943875066480574        9.993258511548113        0.072207664760460        0.041689170827063        0.094262597527708
Se          1.612347127257994        2.847359327394505        8.277856165635669        0.278759386350933        0.160947273120841        0.507446516273543
Se          1.657581749291362        2.873475324247103       11.616838611167335       -0.350981192185095       -0.202664983205739        0.593632760944118
Mo         -0.024865233263440        3.818589204346238        9.993258511548113        0.072220777392438        0.041690970600079        0.094249227785298
Se         -0.047371011221218        5.722073465260170        8.277856165635669        0.278771213430757        0.160942902243515        0.507439831402338
Se         -0.002137716962361        5.748189462112768       11.616838611167335       -0.350996875921383       -0.202654698788501        0.593642531140495
Mo         -1.684584699517163        6.693304669986414        9.993258511548113        0.072221805834162        0.041697141250422        0.094260540644260
Se         -1.707089149700431        8.596787603125835        8.277856165635669        0.278766328332569        0.160951386887736        0.507439831402338
Se         -1.661854527667063        8.622903599978432       11.616838611167335       -0.351002532350864       -0.202644928592125        0.593642531140495
Mo         -3.344301510221865        9.568020135626588        9.993258511548113        0.072215635183819        0.041699455244301        0.094249227785298
Se         -3.366807288179643       11.471508379864053        8.277856165635669        0.278764014338690        0.160939045587050        0.507446516273543
Se         -3.321573993920786       11.497617737844097       11.616838611167335       -0.351003560792588       -0.202626159530665        0.593632760944118
Mo          4.954287854399686        0.943875066480574       10.006756667224737        0.072248288208550        0.041691227710510       -0.094330988902341
Se          4.977018026249787        2.873475324247103        8.383172584281985       -0.351002789461295       -0.202651613463330       -0.593587509508270
Se          4.931783404216419        2.847359327394505       11.722157685362673        0.278762985896966        0.160943930685238       -0.507427747212083
Mo          3.294569715920474        3.818589204346238       10.006756667224737        0.072229776257522        0.041723109403948       -0.094330988902341
Se          3.317299887770574        5.748189462112768        8.383172584281985       -0.350980677964233       -0.202662669211861       -0.593574396876292
Se          3.272065265737206        5.722073465260170       11.722157685362673        0.278760671903088        0.160948301562565       -0.507436746077167
Mo          1.634851577441262        6.693304669986414       10.006756667224737        0.072249573760705        0.041704083232058       -0.094323018478982
Se          1.657581749291362        8.622903599978432        8.383172584281985       -0.350995847479659       -0.202647499696434       -0.593585709735254
Se          1.612347127257994        8.596787603125835       11.722157685362673        0.278770699209895        0.160948301562565       -0.507429032764238
Mo         -0.024865233263440        9.568020135626588       10.006756667224737        0.072241603337346        0.041717967195329       -0.094323018478982
Se         -0.002137716962361       11.497617737844097        8.383172584281985       -0.351001246798709       -0.202626930861958       -0.593574396876292
Se         -0.047371011221218       11.471508379864053       11.722157685362673        0.278765814111707        0.160939816918343       -0.507436746077167
Mo          8.273725459132622        0.943875066480574        9.993258511548113        0.072221548723731        0.041678372188962        0.094263368859000
Se          8.251219681174844        2.847359327394505        8.277856165635669        0.278762985896966        0.160943930685238        0.507439574291907
Se          8.296454303208211        2.873475324247103       11.616838611167335       -0.351005360565605       -0.202654184567639        0.593644588023942
Mo          6.614007320653410        3.818589204346238        9.993258511548113        0.072227205153212        0.041700483686025        0.094264911521586
Se          6.591501542695631        5.722073465260170        8.277856165635669        0.278762985896966        0.160943930685238        0.507439574291907
Se          6.636736164728998        5.748189462112768       11.616838611167335       -0.351006389007329       -0.202652384794623        0.593644588023942
Mo          4.954287854399686        6.693304669986414        9.993258511548113        0.072205093656150        0.041706397225936        0.094263368859000
Se          4.931783404216419        8.596787603125835        8.277856165635669        0.278756043915331        0.160951643998167        0.507445487831819
Se          4.977018026249787        8.622903599978432       11.616838611167335       -0.350988391277162       -0.202661383659706        0.593636360490152
Mo          3.294569715920474        9.568020135626588        9.993258511548113        0.072231576030538        0.041703054790334        0.094247170901850
Se          3.272065265737206       11.471508379864053        8.277856165635669        0.278766328332569        0.160933903378431        0.507445487831819
Se          3.317299887770574       11.497617737844097       11.616838611167335       -0.351004075013450       -0.202634129954025        0.593636360490152
Mo         11.593157752767514        0.943875066480574       10.006756667224737        0.072278113018541        0.041688913716632       -0.094326618025015
Se         11.615887924617613        2.873475324247103        8.383172584281985       -0.350986077283283       -0.202654955898932       -0.593583909962237
Se         11.570658613682291        2.847359327394505       11.722157685362673        0.278759900571795        0.160941102470498       -0.507430318316393
Mo          9.933443597611834        3.818589204346238       10.006756667224737        0.072244688662517        0.041714881870158       -0.094326103804153
Se          9.956171113912914        5.748189462112768        8.383172584281985       -0.350998418583969       -0.202649042359020       -0.593586223956116
Se          9.910937819654057        5.722073465260170       11.722157685362673        0.278764271449121        0.160944444906100       -0.507428261432945
Mo          8.273725459132622        6.693304669986414       10.006756667224737        0.072248545318981        0.041708454109384       -0.094326103804153
Se          8.296454303208211        8.622903599978432        8.383172584281985       -0.350997390142245       -0.202635415506180       -0.593583909962237
Se          8.251219681174844        8.596787603125835       11.722157685362673        0.278758872130071        0.160942388022653       -0.507430318316393
Mo          6.614007320653410        9.568020135626588       10.006756667224737        0.072242631779069        0.041750363109630       -0.094326618025015
Se          6.636736164728998       11.497617737844097        8.383172584281985       -0.350988648387593       -0.202643385929539       -0.593555370704401
Se          6.591501542695631       11.471508379864053       11.722157685362673        0.278753472811021        0.160938274255757       -0.507451144261300
