# total energy = -38122.711072096114 eV 

 CRYSTAL
 PRIMVEC
       53.110927513609894        0.000000000000000        0.000000000000000
       -1.659716484800309        2.874735173529163        0.000000000000000
        0.000000000000000        0.000000000000000       19.999981973800079
 PRIMCOORD
48 1
Mo          1.560080384784777        0.900708219703310        9.999996297992791        0.633787496719247        0.365917508450515        0.000000000000000
Se          1.591798230695905        2.835491509189357        8.349643269713130       -0.014735770129276       -0.008507784160273       -0.143013306340926
Se          1.591798230695905        2.835491509189357       11.650359948457952       -0.014735770129276       -0.008507784160273        0.143013306340926
Mo          4.919144728496051        0.923588407276173        9.999996297992791        0.402828281918295        0.232573096976051        0.000000000000000
Se          4.967178251339360        2.867793575303134        8.354115209809777       -0.201219251252484       -0.116174062674483       -0.160879138856638
Se          4.967178251339360        2.867793575303134       11.645888008361306       -0.201219251252484       -0.116174062674483        0.160879138856638
Mo          8.294333549800458        0.955778940442172        9.999996297992791        0.346773837092961        0.200210092810989        0.000000000000000
Se          8.336689514492562        2.896707164241543        8.347747209600895       -0.213614545128784       -0.123330474409661       -0.100870849824091
Se          8.336689514492562        2.896707164241543       11.652250697477436       -0.213614545128784       -0.123330474409661        0.100870849824091
Mo         11.660068626007440        0.982504359167021        9.999996297992791        0.145881630308651        0.084224749192826        0.000000000000000
Se         11.677356232913120        2.908965166311684        8.333470992285235       -0.135534221014901       -0.078250788329606        0.009998767549376
Se         11.677356232913120        2.908965166311684       11.666526914793096       -0.135534221014901       -0.078250788329606       -0.009998767549376
Mo         14.995079030647801        0.991506661380578        9.999996297992791       -0.131213223112285       -0.075756045818058        0.000000000000000
Se         14.979416618124038        2.898937823197115        8.317835135225229        0.003757926058826        0.002169497816391        0.113935402152165
Se         14.979416618124038        2.898937823197115       11.682168082945854        0.003757926058826        0.002169497816391       -0.113935402152165
Mo         18.292237277249210        0.978643194736781        9.999996297992791       -0.351955126497549       -0.203201315564710        0.000000000000000
Se         18.250858553623360        2.871229852313264        8.308014924727964        0.146167022887010        0.084389556979068        0.160881195740086
Se         18.250858553623360        2.871229852313264       11.691988293443121        0.146167022887010        0.084389556979068       -0.160881195740086
Mo         21.561745974987037        0.949819894375145        9.999996297992791       -0.399689734887637       -0.230760982658686        0.000000000000000
Se         21.513707141050979        2.838556009706892        8.308514167446591        0.225136949091995        0.129982949700169        0.133271135001642
Se         21.513707141050979        2.838556009706892       11.691478428538989        0.225136949091995        0.129982949700169       -0.133271135001642
Mo         24.826538422361654        0.918272003432061        9.999996297992791       -0.261201829241935       -0.150805037950992        0.000000000000000
Se         24.793928312868296        2.815920132400591        8.319115108578307        0.197559541378282        0.114060872042471        0.046598694506132
Se         24.793928312868296        2.815920132400591       11.680888109592777        0.197559541378282        0.114060872042471       -0.046598694506132
Mo         28.111688288252239        0.898472249654987        9.999996297992791       -0.011936608867478       -0.006891587991295        0.000000000000000
Se         28.109516051316930        2.813700095630522        8.334936853884612        0.075043592813884        0.043326450051379       -0.062196813020828
Se         28.109516051316930        2.813700095630522       11.665061053193719        0.075043592813884        0.043326450051379        0.062196813020828
Mo         31.432916407202814        0.899513223834254        9.999996297992791        0.237850802792247        0.137323195393480        0.000000000000000
Se         31.462244261375830        2.832926251390449        8.348729761759897       -0.079460750017677       -0.045876728416013       -0.146609767049113
Se         31.462244261375830        2.832926251390449       11.651268145318435       -0.079460750017677       -0.045876728416013        0.146609767049113
Mo         34.789415493115186        0.920911616529487        9.999996297992791        0.376343079315275        0.217281711205483        0.000000000000000
Se         34.836832929199332        2.864766252434858        8.354157698551788       -0.192221928831674       -0.110979403527485       -0.166988082696109
Se         34.836832929199332        2.864766252434858       11.645840208526545       -0.192221928831674       -0.110979403527485        0.166988082696109
Mo         38.164163493721219        0.952852528336172        9.999996297992791        0.355495537131788        0.205245343490795        0.000000000000000
Se         38.207953453456192        2.894609282604756        8.348729761759897       -0.216422191034804       -0.124951298566396       -0.109848374741718
Se         38.207953453456192        2.894609282604756       11.651268145318435       -0.216422191034804       -0.124951298566396        0.109848374741718
Mo         41.531784007854938        0.980672032167801        9.999996297992791        0.169350156225285        0.097774468904110        0.000000000000000
Se         41.551897116104342        2.908758033694381        8.334936853884612       -0.145539159214620       -0.084027031271422       -0.000787529250013
Se         41.551897116104342        2.908758033694381       11.665061053193719       -0.145539159214620       -0.084027031271422        0.000787529250013
Mo         44.870156334206918        0.991602261050102        9.999996297992791       -0.106871550172131       -0.061702389662104        0.000000000000000
Se         44.857404400510895        2.900717039268820        8.319115108578307       -0.010194942808194       -0.005886029095834        0.106348330445139
Se         44.857404400510895        2.900717039268820       11.680888109592777       -0.010194942808194       -0.005886029095834       -0.106348330445139
Mo         48.170575591757654        0.980624232333039        9.999996297992791       -0.343172234176155       -0.198130583645432        0.000000000000000
Se         48.130875173441233        2.874182819883021        8.308514167446591        0.132133678455101        0.076287235968409        0.163163822146097
Se         48.130875173441233        2.874182819883021       11.691478428538989        0.132133678455101        0.076287235968409       -0.163163822146097
Mo         51.441783839175919        0.952783484130405        9.999996297992791       -0.426079035299910       -0.245996832576168        0.000000000000000
Se         51.393405095303770        2.841323089030351        8.308014924727964        0.111048309122981        0.064113828394023       -0.016029549817837
Se         51.393405095303770        2.841323089030351       11.691988293443121        0.111048309122981        0.064113828394023        0.016029549817837
