# total energy = -38122.58988451076 eV 

 CRYSTAL
 PRIMVEC
       13.277745107833699        0.000000000000000        0.000000000000000
       -6.638872553916849       11.498859207011680        0.000000000000000
        0.000000000000000        0.000000000000000       20.000015178772852
 PRIMCOORD
48 1
Mo          1.634851577441262        0.943875066480574        9.925111812556668        0.047001329441006        0.027136206214195        0.250380308313505
Se          1.662817164187381        2.876498666808157        8.258595468582245        0.074690837302615        0.043081166700248        0.239891745393161
Se          1.607111712361975        2.844335984833452       11.597577914113911       -0.083491727354176       -0.048237773503465        0.243087370939491
Mo         -0.024865233263440        3.818589204346238        9.925111812556668        0.047014699183416        0.027155746606948        0.250378251430058
Se          0.003099025708168        5.751211476899311        8.258595468582245        0.074665640480381        0.043109705958084        0.239884546301095
Se         -0.052607753891748        5.719051450473627       11.597577914113911       -0.083512039078221       -0.048218747331574        0.243096112694143
Mo         -1.684584699517163        6.693304669986414        9.925111812556668        0.047034239576169        0.027155232386086        0.250382108086522
Se         -1.656619112771044        8.625926942539486        8.258595468582245        0.074666926032536        0.043107649074637        0.239884546301095
Se         -1.712324564596449        8.593765588339291       11.597577914113911       -0.083514610182531       -0.048214119343817        0.243096112694143
Mo         -3.344301510221865        9.568020135626588        9.925111812556668        0.047024726490223        0.027138005987212        0.250378251430058
Se         -3.316337251250256       11.500638424856129        8.258595468582245        0.074654841842281        0.043143644534970        0.239891745393161
Se         -3.372044030850173       11.468478398430445       11.597577914113911       -0.083521037943305       -0.048187122748567        0.243087370939491
Mo          4.954287854399686        0.943875066480574       10.001786807230875        0.002688089555626        0.001523893524265       -0.035899558142837
Se          4.980853966811440        2.875690052131090        8.366672330436478       -0.059627251373872       -0.034425801152607       -0.053278680612752
Se          4.927946135880255        2.845143271736008       11.705658759291678        0.035495123434946        0.020492986899201       -0.064020754418017
Mo          3.294569715920474        3.818589204346238       10.001786807230875        0.002663664064685        0.001566059634942       -0.035899558142837
Se          3.321135828332228        5.750405517771266        8.366672330436478       -0.059625194490425       -0.034424258490022       -0.053266853532928
Se          3.268226669626532        5.719857409601672       11.705658759291678        0.035508493177355        0.020487073359290       -0.064031810166548
Mo          1.634851577441262        6.693304669986414       10.001786807230875        0.002699145304157        0.001549347456930       -0.035907785676627
Se          1.661417689853015        8.625119655636929        8.366672330436478       -0.059621080723530       -0.034422201606574       -0.053277652171028
Se          1.608508531147320        8.594572875241846       11.705658759291678        0.035499751422703        0.020495815113942       -0.064023325522327
Mo         -0.024865233263440        9.568020135626588       10.001786807230875        0.002691431991228        0.001562974309770       -0.035907785676627
Se          0.001700879148313       11.499837776826126        8.366672330436478       -0.059624937379994       -0.034424772710884       -0.053266853532928
Se         -0.051208279557382       11.469288340882022       11.705658759291678        0.035496408987101        0.020507899304197       -0.064031810166548
Mo          8.273725459132622        0.943875066480574       10.072817432459743       -0.006846593665878       -0.003971841937380       -0.359595420063783
Se          8.214885131687257        2.826380490124128        8.359927235921699        0.132458923150258        0.076475955024730       -0.068290587344873
Se          8.332788852695799        2.894452833742970       11.698917648100430       -0.135359643032283       -0.078156685911877       -0.116486451848092
Mo          6.614007320653410        3.818589204346238       10.072817432459743       -0.006846336555447       -0.003952815765489       -0.359602619155850
Se          6.555166993208045        5.701095955764303        8.359927235921699        0.132459694481551        0.076474669472575       -0.068290587344873
Se          6.673070714216586        5.769166971608635       11.698917648100430       -0.135365556572195       -0.078146658605070       -0.116486451848092
Mo          4.954287854399686        6.693304669986414       10.072817432459743       -0.006863048733459       -0.003943559789975       -0.359595420063783
Se          4.895448854728832        8.575810093629968        8.359927235921699        0.132457637598103        0.076476726356022       -0.068284673804961
Se          5.013352575737374        8.643882437248809       11.698917648100430       -0.135357586148835       -0.078158485684894       -0.116492879608866
Mo          3.294569715920474        9.568020135626588       10.072817432459743       -0.006838880352950       -0.003948444888163       -0.359606218701883
Se          3.235730716249619       11.450528214819164        8.359927235921699        0.132459694481551        0.076473383920420       -0.068284673804961
Se          3.353634437258161       11.518597902888985       11.698917648100430       -0.135366070793057       -0.078143830390329       -0.116492879608866
Mo         11.593157752767514        0.943875066480574        9.912641354351392        0.004674781855609        0.002662121402099        0.417012550173174
Se         11.636117897063910        2.885154428843954        8.259779843445864       -0.462064468326686       -0.266784468029243       -0.239732851146832
Se         11.550428641235994        2.835678895023144       11.598767600075574        0.450413509147998        0.260048431848675       -0.213064071696111
Mo          9.933443597611834        3.818589204346238        9.912641354351392        0.004652413248116        0.002688089555626        0.417021291927826
Se          9.976402414133720        5.759869894484129        8.259779843445864       -0.462080666283836       -0.266782411145795       -0.239735165140710
Se          9.890706519433250        5.710393032888809       11.598767600075574        0.450426878890408        0.260054088278156       -0.213062786143957
Mo          8.273725459132622        6.693304669986414        9.912641354351392        0.004654213021132        0.002685261340885        0.417021291927826
Se          8.316684275654508        8.634584032349794        8.259779843445864       -0.462074238523062       -0.266767498740800       -0.239732851146832
Se          8.230988380954038        8.585108498528983       11.598767600075574        0.450415308921015        0.260045346523503       -0.213064071696111
Mo          6.614007320653410        9.568020135626588        9.912641354351392        0.004642900162170        0.002717400144755        0.417012550173174
Se          6.656966137175295       11.509298170215457        8.259779843445864       -0.462062411443238       -0.266771869618126       -0.239706882993305
Se          6.571270242474824       11.459818653071116       11.598767600075574        0.450452075712641        0.260068743572720       -0.213086954524466
