# total energy = -9520.130019409258 eV 

 CRYSTAL
 PRIMVEC
        8.099322384569499        0.000000000000000        0.000000000000000
       -4.049661192284749        7.014215668096800        0.000000000000000
        0.000000000000000        0.000000000000000       19.999964538468078
 PRIMCOORD
12 1
Se          4.011589517483842        6.969619179182883        8.506623538441445       -0.195842815030802        0.136064382723528        0.076162023188535
Se          0.029220735299050        6.993813475010070        8.572449161257557       -0.160868083108107       -0.009457035871356       -0.330179415658318
Se          5.979060712498696        3.527525415847661        8.543294030469822        0.067654496138692       -0.095425765117344        0.434434095864197
Se          2.006202964590103        3.510061656922053        8.644249654196765       -0.144996141984445       -0.112159283295134       -0.245616052027925
Se          4.033997912725231        7.007987289183067       11.465557084518604       -0.021032918804205        0.056145719028322       -0.512177091092669
Se          0.005258080092063        6.999076414695563       11.369823903865232       -0.248681322585760       -0.005076131238328        0.530231899775132
Se          6.107970337503742        3.516646406020708       11.704271652887975        0.092669284187085        0.030237215121933       -1.633058499481558
Se          1.999981875066515        3.551367391151119       11.623326215044349       -0.087726593262422       -0.164820898873596       -0.693500108756196
Mo          1.922825300234391        1.142757693206064       10.097049408284150        0.345224232525600        0.180381993486235        0.326994331639657
Mo          5.956286227885525        1.212919693226874        9.812402772739647        0.616088785983655       -0.091160817288677        0.423545983334150
Mo          0.030080073404053        4.615251453179530       10.126036883098523       -0.320164964372653        0.109397917266686        0.644788480728482
Mo          3.998992641379121        4.669501524443615        9.850874554066353        0.057675783202930       -0.034127295942270        0.978373838265649
