# total energy = -38121.28721524891 eV 

 CRYSTAL
 PRIMVEC
       13.277745107833699        0.000000000000000        0.000000000000000
       -6.638872553916849       11.498859207011680        0.000000000000000
        0.000000000000000        0.000000000000000       20.000015178772852
 PRIMCOORD
48 1
Mo          1.699758506626396        0.915212398116294       10.000007589386426       -0.785209085483667        0.821134354669599        0.000000000000000
Se          1.676507847168068        2.878665594809755        8.330437364037200       -0.762216470974729       -0.373179335462384       -0.137752569813173
Se          1.676507847168068        2.878665594809755       11.669577814735652       -0.762216470974729       -0.373179335462384        0.137752569813173
Mo         -0.032602175337775        3.888799264927441       10.000007589386426        0.828260427373924       -1.969069179713916        0.000000000000000
Se         -0.029355766658910        5.690047544060074        8.330461263978394        0.056780781792779        0.940314809613229       -0.148337034924263
Se         -0.029355766658910        5.690047544060074       11.669557898117990        0.056780781792779        0.940314809613229        0.148337034924263
Mo         -1.741781242118179        6.652012210475562       10.000007589386426        1.012122153432693        0.858195023518624        0.000000000000000
Se         -1.721431769965913        8.636518599812005        8.330644496860883        0.663812595735643       -0.576350054885811       -0.127389476783135
Se         -1.721431769965913        8.636518599812005       11.669368026362948        0.663812595735643       -0.576350054885811        0.127389476783135
Mo         -3.279576486144708        9.538952496036519       10.000007589386426       -1.837972170516422        0.986013874721453        0.000000000000000
Se         -3.302764740201029       11.503068252210861        8.330437364037200       -0.000916598686352       -0.311404440658752       -0.081159478634991
Se         -3.302764740201029       11.503068252210861       11.669577814735652       -0.000916598686352       -0.311404440658752        0.081159478634991
Mo          4.946552240099862        1.014085127061777       10.000007589386426        0.766180085378318       -2.139518740141960        0.000000000000000
Se          4.949798648778727        2.815333406194410        8.330461263978394        0.090677192568052        0.955232356817189       -0.163001071243303
Se          4.949798648778727        2.815333406194410       11.669557898117990        0.090677192568052        0.955232356817189        0.163001071243303
Mo          3.237373173319459        3.777298072609897       10.000007589386426        1.942668052221818        1.358813458077318        0.000000000000000
Se          3.257723973246235        5.761803134171830        8.330644496860883        0.774295004800093       -0.535367423523010       -0.145485166024119
Se          3.257723973246235        5.761803134171830       11.669368026362948        0.774295004800093       -0.535367423523010        0.145485166024119
Mo          1.699577929292929        6.664238358170855       10.000007589386426       -2.244548351186735        1.038849039840809        0.000000000000000
Se          1.676389675236608        8.628355442119709        8.330437364037200       -0.786245240520412       -0.400492947873938       -0.145156836003791
Se          1.676389675236608        8.628355442119709       11.669577814735652       -0.786245240520412       -0.400492947873938        0.145156836003791
Mo         -0.032158698651173        9.638274012766647       10.000007589386426        0.078295268434161       -2.198480846830954        0.000000000000000
Se         -0.029071622913602       11.439447936526678        8.330459936203884       -0.324666710908229        0.805080893581683       -0.437578556434766
Se         -0.029071622913602       11.439447936526678       11.669557898117990       -0.324666710908229        0.805080893581683        0.437578556434766
Mo          8.216527588757096        0.902582606969722       10.000007589386426        0.688486198242159        1.278264873826274        0.000000000000000
Se          8.236878388683872        2.887087668531655        8.330644496860883        0.735774720034541       -0.557555282383061       -0.141083178335753
Se          8.236878388683872        2.887087668531655       11.669368026362948        0.735774720034541       -0.557555282383061        0.141083178335753
Mo          6.678732344730565        3.789522892530680       10.000007589386426       -2.179143057098030        0.994363021745827        0.000000000000000
Se          6.655544090674246        5.753641304254044        8.330437364037200       -0.851703756468325       -0.390473868600516       -0.141094491194715
Se          6.655544090674246        5.753641304254044       11.669577814735652       -0.851703756468325       -0.390473868600516        0.141094491194715
Mo          4.946995716786464        6.763558547126473       10.000007589386426        0.219805250085298       -2.398788898716137        0.000000000000000
Se          4.950082792524035        8.564732470886501        8.330459936203884        0.049822087979005        0.916753981051882       -0.145289247875732
Se          4.950082792524035        8.564732470886501       11.669557898117990        0.049822087979005        0.916753981051882        0.145289247875732
Mo          3.237112929515345        9.527087503008159       10.000007589386426        1.898128298046767        1.244012622214561        0.000000000000000
Se          3.257556673657876       11.510997721589261        8.330645824635395        0.384446171657227       -0.353441224788464        0.284601706673504
Se          3.257556673657876       11.510997721589261       11.669368026362948        0.384446171657227       -0.353441224788464       -0.284601706673504
Mo         11.657888087942714        0.914807426890505       10.000007589386426       -1.023611647260741        0.668523630162016        0.000000000000000
Se         11.634698506111883        2.878925838613869        8.330437364037200       -0.356935098434701       -0.125262402187851        0.254016621138490
Se         11.634698506111883        2.878925838613869       11.669577814735652       -0.356935098434701       -0.125262402187851       -0.254016621138490
Mo          9.926150132224100        3.888844409260808       10.000007589386426        0.092012624146428       -2.153485750082683        0.000000000000000
Se          9.929237207961673        5.690018333020837        8.330459936203884       -0.376516885966600        0.685347136990639       -0.459156806463025
Se          9.929237207961673        5.690018333020837       11.669557898117990       -0.376516885966600        0.685347136990639        0.459156806463025
Mo          8.216267344952982        6.652373365142495       10.000007589386426        1.927004370547229        1.164486309036991        0.000000000000000
Se          8.236712416870025        8.636287567047129        8.330645824635395        0.800905934403849       -0.574562623169817       -0.118346645816046
Se          8.236712416870025        8.636287567047129       11.669368026362948        0.800905934403849       -0.574562623169817        0.118346645816046
Mo          6.678550439622589        9.538548852585240       10.000007589386426       -1.827721434744710        1.016573506323802        0.000000000000000
Se          6.655425918742786       11.503328496014975        8.330437364037200        0.125307396513268       -0.389582723846829       -0.019216433609514
Se          6.655425918742786       11.503328496014975       11.669577814735652        0.125307396513268       -0.389582723846829        0.019216433609514
