# total energy = -9528.704621628383 eV 

 CRYSTAL
 PRIMVEC
        6.671972590841800        0.000000000000000        0.000000000000000
       -3.335986295420900        5.778095062983770        0.000000000000000
        0.000000000000000        0.000000000000000       19.999938398170332
 PRIMCOORD
12 1
Se          3.318168792617057        5.729342292065230        8.520474622602956        0.554220302983155        2.375644074832074       -3.420037186895547
Se         -0.065957786638544        5.729534444875846        8.501340739606940       -0.033605104657002       -0.330343966334128       -1.955877871943381
Se          4.953479282591267        2.858591978206469        8.500530762134412        1.236960854424781        0.993409656267849       -3.386055929678060
Se          1.586119370456453        2.914247571967494        8.264288889440627       -0.613185494997320       -0.574206782333377        0.640186975345696
Se          3.281130671173517        5.746394519612903       11.711755173290125        0.031670605774503       -0.060532794311693       -0.936581051934912
Se          0.046052623611026        5.739891347928610       11.859523353443052       -0.196770983686546        0.492863983961116       -0.861093429406771
Se          4.957943499451801        2.832836162414043       11.750968357798278       -0.764304979005369        0.262697440618796       -0.501523463275652
Se          1.701278284571642        2.836733261604353       11.571845242454691        0.010687566393903        0.886835839974763        1.168776196577461
Mo          1.722057476008559        0.919613327732684       10.106399838657016       -1.387309521360829        0.037025958940847       -0.148038015493063
Mo          4.929139259382619        1.000171391991767        9.916514164327140        0.382858771856516       -1.777863865526234        4.974743596537703
Mo         -0.106016977271217        3.876205240945215       10.185387320568214        1.250557368234499       -0.801002350815457       -1.244969587238572
Mo          3.267810745093160        3.847111437265590        9.820631246224153       -0.471779128849858       -1.504526938164124        5.670470024515531
