# total energy = -9350.96908988957 eV 

 CRYSTAL
 PRIMVEC
        4.116046478171800        0.000000000000000        0.000000000000000
       -2.058023239085900        3.564599151258733        0.000000000000000
        0.000000000000000        0.000000000000000       19.999952158366341
 PRIMCOORD
12 1
Se          2.039171746215873        3.554171559110932        8.277953534598742        0.507633949777708        0.961406092485261      -24.879020628216516
Se         -0.015347090898511        3.561852101839201        8.263693491575115       -0.545007264910775        0.338435488706687      -24.064157196957886
Se          3.072312583585725        1.777535663435530        8.298524300082700        0.097963445070862       -0.285779015336843      -25.614629769133519
Se          1.005331180944732        1.778070749477693        8.283194084974751        0.059002730137085       -0.970773139705783      -24.798526551376831
Se          2.043432265925428        3.557328978364338       11.747550217094791        0.149882268614298       -0.535948493096966       22.716975671887365
Se         -0.009452089132474        3.556721038299512       11.709895389098532       -0.268471883787595        0.078530781588915       23.836258881837441
Se          3.072793749419024        1.772640449359041       11.743931800635831       -0.620500029647535        0.474874738438546       22.240383949990907
Se          1.009660027025825        1.780486457155732       11.704697645605897        0.846962125900668        0.005446884479764       23.388901644382198
Mo          1.019401885830362        0.587781727199128       10.011425685671499       -1.079163184083129       -0.677237359777483        0.148439107765352
Mo          3.066460800307708        0.591128484590530        9.988273747441079        1.135108871196168       -0.145075846218040        1.979941865618105
Mo         -0.008582780116284        2.369365110741293        9.988674238763405       -1.020507810138263        0.129188478468521        1.428231988882787
Mo          2.039283702680079        2.373480334010169        9.963030445995098        0.737096524760076        0.626931132856992        3.617201292431023
