# total energy = -9526.646051619331 eV 

 CRYSTAL
 PRIMVEC
        6.705204922078999        0.000000000000000        0.000000000000000
       -3.352602461039500        5.806875092643465        0.000000000000000
        0.000000000000000        0.000000000000000       20.000050559404965
 PRIMCOORD
12 1
Se          3.238258601503286        5.849202369234582        8.415968223816266        2.293093885876052       -0.421685789366197       -4.225375962239478
Se         -0.066836141622299        5.786179477651468        8.390992006002014        0.394256991481576        0.697720576480308       -3.966489926649146
Se          4.949443660630152        2.872657973647421        8.508655612495149        0.756817923255984        0.132067601074346       -5.913857186217514
Se          1.667493943854599        2.934397489008448        8.612195375340415       -1.336201109895761       -1.871991994298553       -6.925994252055203
Se          3.289963777698422        5.844245881756180       11.485348193111086        0.441460409721312       -0.838263565800627        1.350746104085269
Se         -0.056978149345859        5.736494579699355       11.322580014148111        1.767489459637234        0.247764723899409        4.387201010371596
Se          4.997325528978718        2.926395497454439       11.680951090056990       -0.083023786369839       -0.101043113812831       -1.078034726401671
Se          1.663095999946207        2.896853035088251       11.598880722851728       -0.064674843354365        0.340794734021122        0.124931243952782
Mo          1.711230654520336        0.937544549901821        9.979790312288634       -2.692915261304338        0.908358811260367        0.148768980448266
Mo          5.058361668343419        0.966736330050584        9.865117897711238       -2.515207730520888        0.175533147868870        4.185563954668811
Mo         -0.073814918905199        3.890729352581442        9.833005330298416       -0.039216796923007       -1.366741715326220        4.567873024423947
Mo          3.316443972976696        3.855079119051732        9.805790915081175        1.078121115506471        2.097486584000005        7.344667478501909
