# total energy = -9523.188884829995 eV 

 CRYSTAL
 PRIMVEC
        7.568240097473099        0.000000000000000        0.000000000000000
       -3.784120048736550        6.554285130414141        0.000000000000000
        0.000000000000000        0.000000000000000       20.000020487584848
 PRIMCOORD
12 1
Se          3.754805227542997        6.573485755541429        8.342111568039968       -0.051905710911457        0.018122171615373        1.806994991574203
Se         -0.044909179914396        6.489687930710179        8.122195917759623        0.085470449230799        0.045394389247543        2.757988368716251
Se          5.721242131469189        3.233547231773596        8.085298476812413       -0.205975794225136        0.195163529272221        2.891267731251683
Se          1.827829884309040        3.272344300985273        8.188536083158034        0.117805942579749        0.107571661875619        2.251517072307317
Se          3.749898737487805        6.491882720338446       11.665090422573373        0.019492570212359        0.004451610001540       -1.184824258346327
Se         -0.013835499722191        6.486643227718965       11.650433011976599       -0.040313115800596        0.135658148242620       -1.525208901230077
Se          5.681975074547459        3.210333925746626       11.830616158569217       -0.031827957358247        0.046268564712787       -2.723527600545034
Se          1.825582873824100        3.214552462776958       11.641267116394546        0.048909603059548        0.522010279524510       -1.561503638105290
Mo          1.814839000181728        1.132456200033163       10.143823455772628        0.200556420561484       -0.581358308970367       -1.656069625941524
Mo          5.699718056631975        1.064152076329459       10.140258057862708       -0.230669965566128        0.135374812547709       -1.252866734125329
Mo         -0.015243192380321        4.380383087991959        9.859524786983080       -0.100100289862522       -0.320825738180205       -0.101714943368914
Mo          3.722873308923739        4.387786340455306        9.856981101486319        0.188558105190577       -0.307831376999782        0.297947537813042
