# total energy = -9369.906504422148 eV 

 CRYSTAL
 PRIMVEC
        4.381587621720000        0.000000000000000        0.000000000000000
       -2.190793810860000        3.794564420100063        0.000000000000000
        0.000000000000000        0.000000000000000       19.999905673320075
 PRIMCOORD
12 1
Se          2.174215635934460        3.788858716699059        8.430225848764454        0.438398224488648       -1.117863703260780      -31.594004349587635
Se         -0.013351573800905        3.791594580010061        8.473726250672890       -0.820801653771944       -1.970989280412281      -33.619415423588691
Se          3.273741749539169        1.894116951152101        8.451271928587861        0.529225055327515        1.519292275992960      -32.836453997492427
Se          1.087827274654716        1.881827036031938        8.445778732186511       -0.551522957452015        1.248173440318692      -31.190761862765072
Se          2.165306115664455        3.790486476500528       11.512892696343084       -0.192392650157828        0.628481251645215       34.571468352816701
Se         -0.012131301648256        3.788211118048569       11.520894789816632        0.144461095177629        1.279806765080706       34.146745575040072
Se          3.276157756953785        1.890930660633586       11.535832060177837       -0.581646015542604       -1.297627346160570       34.716914180944883
Se          1.083800595630356        1.890869756565644       11.502814168495602        0.527495987679348       -1.013097373297302       36.563387964971234
Mo          1.074272833346926        0.621624599068660        9.996205702925943       -0.673324139018361       -0.566924386487031       -1.938292032686978
Mo          3.263941014346905        0.630442105998609        9.961205142844882        0.996952380895966       -0.555664492273825        1.449127353606431
Mo         -0.015328546135825        2.513712875151904       10.032595226283091        0.552996714442244        0.607015358875282       -5.736124458611831
Mo          2.184520253703221        2.513642331591195       10.017312686817293       -0.369841784958168        1.239397489978934       -4.532591302646694
