# total energy = -38122.9114768176 eV 

 CRYSTAL
 PRIMVEC
       53.110927513609894        0.000000000000000        0.000000000000000
       -1.659716484800309        2.874735173529163        0.000000000000000
        0.000000000000000        0.000000000000000       19.999981973800079
 PRIMCOORD
48 1
Mo          1.634849948538437        0.943876781586372       10.095930566360623        0.010012137291786        0.005780613819142       -0.382769554536975
Se          1.627271019182245        2.855976393931356        8.422468973519791        0.073458249896621        0.042411136917182        0.046770958494872
Se          1.642651943790186        2.864856541011632       11.761446764445418       -0.071452017203885       -0.041252854425733        0.046738048359709
Mo          4.954282918139056        0.943876781586372       10.084920671087053        0.004108881797078        0.002372357946414       -0.024137527257977
Se          4.940681209602820        2.852497628179214        8.408734487664773        0.033731345878600        0.019474829592623        0.016493634145709
Se          4.968107692570848        2.868329995671022       11.747717589683152       -0.034029079757645       -0.019646579360500        0.016747916361923
Mo          8.273715887739673        0.943876781586372       10.065598915657601        0.000056821405241        0.000032653024731       -0.005422458988823
Se          8.255435106489490        2.849794281968772        8.387341406062291        0.044843401594008        0.025890506176222        0.009233864017288
Se          8.292225045978167        2.871033341881464       11.726329819173420       -0.045009752042836       -0.025986408366968        0.008308009355422
Mo         11.593148857340292        0.943876781586372       10.039850737999004        0.001085006018627        0.000626321009804       -0.004734174365159
Se         11.571989463818870        2.848131909937596        8.360387610349134        0.051872543665864        0.029948480107972        0.005961105341672
Se         11.614536627850024        2.872695713912640       11.699370712367513       -0.052290605226595       -0.030189906802638        0.003472790590898
Mo         14.912587138033661        0.943876781586372       10.010198907168155        0.002462603707679        0.001421820683177       -0.002033486398416
Se         14.890625769506785        2.847669844868227        8.330507402529976        0.053418291576760        0.030840910413814        0.001591513567606
Se         14.934766261363345        2.873157778982009       11.669490504548355       -0.054186280434021       -0.031284425907210       -0.001529549953746
Mo         18.232020107634280        0.943876781586372        9.979559213085553       -0.001084748908196       -0.000626321009804        0.003965157066175
Se         18.211418378851750        2.848461197688180        8.300627194710820        0.049915161955010        0.028818479763928       -0.003482303676843
Se         18.252839591219615        2.872371737254807       11.639610296729199       -0.050683150812270       -0.029261995257324       -0.005741018812775
Mo         21.551447766142150        0.943876781586372        9.950916489877464       -0.000081246896182       -0.000046794098434        0.004848074286072
Se         21.534245136720489        2.850415679820681        8.273673398997664        0.041556244734259        0.023992516974919       -0.008225476907086
Se         21.568878772552114        2.870411944029555       11.612656501016042       -0.042523751285940       -0.024551217941382       -0.008770551020708
Mo         24.870886046835516        0.943876781586372        9.927074994516603        0.001331832032343        0.000769017298984        0.004850902500812
Se         24.858766133176914        2.853352714112183        8.252280317395181        0.028954234071472        0.016716805999778       -0.011799826118210
Se         24.883229026389682        2.867474909738052       11.591268730506311       -0.029923026175307       -0.017276021187103       -0.011306431201209
Mo         28.190319016436138        0.943876781586372        9.910376918906325       -0.000535303917247       -0.000309046738007        0.004318683908737
Se         28.184476814409638        2.856980190461363        8.238545831540161        0.013861851774463        0.008003076384310       -0.014097107818786
Se         28.196378973265439        2.863847433388873       11.577528933558540       -0.014360131789652       -0.008290782956548       -0.012906686523468
Mo         31.509757297129504        0.943876781586372        9.902447457428542       -0.001079863810007       -0.000623492795064        0.005953392028744
Se         31.510777026937767        2.860942265653878        8.233813647898698       -0.002741568525264       -0.001582771812954       -0.014779993123400
Se         31.508944699938549        2.859885358196357       11.572796749917076        0.002501941603615        0.001444446401100       -0.013494955189491
Mo         34.829184955637373        0.943876781586372        9.904067340717708        0.002002890257133        0.001156225608001        0.005961876672965
Se         34.836986950889120        2.864856541011632        8.238545831540161       -0.019367100322053       -0.011181475531766       -0.013963153284259
Se         34.821606026281181        2.855976393931356       11.577528933558540        0.019002517730960        0.010971159199245       -0.012931626235271
Mo         38.148612614145236        0.943876781586372        9.915082547084031        0.000986018502709        0.000569242494133        0.004337710080628
Se         38.162442699669782        2.868329995671022        8.252280317395181       -0.033784824848239       -0.019505682844337       -0.011499006913994
Se         38.135016216701757        2.852497628179214       11.591268730506311        0.033684037559305        0.019447575886942       -0.011432415312377
Mo         41.468056205931362        0.943876781586372        9.934404302513482        0.000101301509796        0.000058364067827        0.004809507721429
Se         41.486554741984357        2.871033341881464        8.273673398997664       -0.045448125327612       -0.026239405031027       -0.007984821543712
Se         41.449775424681171        2.849794281968772       11.612656501016042        0.045257092277413        0.026129104656148       -0.008809374695782
Mo         44.787483864439231        0.943876781586372        9.960147169079329        0.002029629741952        0.001171909344289        0.004010922722885
Se         44.808876946041707        2.872695713912640        8.300627194710820       -0.052830794242030       -0.030501781755385       -0.003014362692507
Se         44.766324470917809        2.848131909937596       11.639610296729199        0.052363110368125        0.030231815802883       -0.005516047185691
Mo         48.106922145132593        0.943876781586372        9.989793688817427        0.001444960621962        0.000834323348446        0.007674232143120
Se         48.129101268462279        2.873157778982009        8.330507402529976       -0.050197469208198       -0.028981487777153        0.004555482615646
Se         48.084966087698469        2.847669844868227       11.669490504548355        0.049858597660200        0.028785826739197        0.001606168862171
Mo         51.426355114733212        0.943876781586372       10.020438693992778       -0.002315793651604       -0.001336974240962       -0.010542556110844
Se         51.447174598318554        2.872371737254807        8.360387610349134        0.067268059160968        0.038837301926919        0.198227000057039
Se         51.405753385950682        2.848461197688180       11.699370712367513       -0.083243358677874       -0.048060624416538        0.200488029186850
