# total energy = -38122.030262284985 eV 

 CRYSTAL
 PRIMVEC
       13.277745107833699        0.000000000000000        0.000000000000000
       -6.638872553916849       11.498859207011680        0.000000000000000
        0.000000000000000        0.000000000000000       20.000015178772852
 PRIMCOORD
48 1
Mo          1.681047508220437        0.888214758988535       10.000007589386426       -1.546733672288698        0.745227127918140        0.000000000000000
Se          1.660724591558386        2.812109569682228        8.347651960569507       -0.142835643033137        0.233528262227046       -0.167795923670167
Se          1.660724591558386        2.812109569682228       11.652357907105301       -0.142835643033137        0.233528262227046        0.167795923670167
Mo         -0.020422499750359        3.756161230172737       10.000007589386426        0.583916043537499        0.495244312330889        0.000000000000000
Se         -0.022280056290945        5.714381667519202        8.407934251133584       -0.043298682124836        0.030779975241677       -0.735442533357748
Se         -0.022280056290945        5.714381667519202       11.592078272090248       -0.043298682124836        0.030779975241677        0.735442533357748
Mo         -1.726059064135993        6.682661229507974       10.000007589386426        0.386018144832081        0.329326323248412        0.000000000000000
Se         -1.707604326210615        8.636116284135237        8.395603209251938        0.101348818115235       -0.090461734026912       -0.560584814590994
Se         -1.707604326210615        8.636116284135237       11.604407986197382        0.101348818115235       -0.090461734026912        0.560584814590994
Mo         -3.392795818679206        9.619143437615282       10.000007589386426        0.072724970947539       -0.062308913168724        0.000000000000000
Se         -3.371232760624084       11.533208733605646        8.322225078688005        0.516751856990636       -0.461636893680009       -0.411513215165495
Se         -3.371232760624084       11.533208733605646       11.677788772310336        0.516751856990636       -0.461636893680009        0.411513215165495
Mo          4.902393115420229        0.973771237365373       10.000007589386426        0.994144477879516       -0.555364958621763        0.000000000000000
Se          4.925457886447047        2.905478673280515        8.354586926839328        0.130913175239361       -0.156439613045352       -0.144280860765530
Se          4.925457886447047        2.905478673280515       11.645428251933524        0.130913175239361       -0.156439613045352        0.144280860765530
Mo          3.265618920487353        3.886072016082292       10.000007589386426        0.160639769045420       -0.240242186910552        0.000000000000000
Se          3.278539494251786        5.774604208230292        8.276496524536627        0.048882349353867       -0.132861300974701        0.412287117562667
Se          3.278539494251786        5.774604208230292       11.723518654236225        0.048882349353867       -0.132861300974701       -0.412287117562667
Mo          1.656000369849019        6.735080439419191       10.000007589386426        0.156538857671701       -0.040637846274891        0.000000000000000
Se          1.646760387028477        8.606707406495897        8.249071342016395       -0.077071679893250        0.004025835127880        0.595802515870941
Se          1.646760387028477        8.606707406495897       11.750947820079988       -0.077071679893250        0.004025835127880       -0.595802515870941
Mo          0.026546195794092        9.544906236942872       10.000007589386426       -0.172093010302704        0.108672608740965        0.000000000000000
Se          0.003916934806811       11.441758264175441        8.298031699327021       -0.292995590912865        0.445005448343308        0.698706337872587
Se          0.003916934806811       11.441758264175441       11.701988790543874       -0.292995590912865        0.445005448343308       -0.698706337872587
Mo          8.318328060498855        0.947229024894813       10.000007589386426       -1.544434590815106        0.500330470876025        0.000000000000000
Se          8.298711519876543        2.829883159283575        8.271259781866096       -0.089592700770287        0.112013501680783        0.414237557291885
Se          8.298711519876543        2.829883159283575       11.728758052455776       -0.089592700770287        0.112013501680783       -0.414237557291885
Mo          6.660216529177692        3.762954124569905       10.000007589386426       -0.133884857600330        0.237145291769709        0.000000000000000
Se          6.639886973643088        5.686821051998871        8.347601505138098       -0.088593312525168        0.181252312295015       -0.135283795455151
Se          6.639886973643088        5.686821051998871       11.652417656958287       -0.088593312525168        0.181252312295015        0.135283795455151
Mo          4.958765110050047        6.630859434744272       10.000007589386426       -0.229803246303382        0.104957620124108        0.000000000000000
Se          4.956892947989844        8.589069249894649        8.407916990064942        0.049479359774543        0.081589367275546       -0.624555946695837
Se          4.956892947989844        8.589069249894649       11.592098188707910        0.049479359774543        0.081589367275546        0.624555946695837
Mo          3.253115267919306        9.557334206363805       10.000007589386426       -0.084581361360560       -0.006090174778011        0.000000000000000
Se          3.271560711423109       11.510807849834219        8.395635075840197        0.332216501602767       -0.597187055541629       -1.263249881768982
Se          3.271560711423109       11.510807849834219       11.604378775158144        0.332216501602767       -0.597187055541629        1.263249881768982
Mo         11.567017855973722        0.908110132258113       10.000007589386426        1.272940888132506        0.252947813077014        0.000000000000000
Se         11.578687666148996        2.868775002478930        8.410111801331267       -0.210091875114281       -0.186363667662384       -0.972881188129176
Se         11.578687666148996        2.868775002478930       11.589908688539627       -0.210091875114281       -0.186363667662384        0.972881188129176
Mo          9.881547530857866        3.848448197544735       10.000007589386426        0.010960103450714       -0.191203771525096        0.000000000000000
Se          9.904613629659194        5.780183516724605        8.354636054496229       -0.127572282299543       -0.135937370170637       -0.426776061678227
Se          9.904613629659194        5.780183516724605       11.645377796502114       -0.127572282299543       -0.135937370170637        0.426776061678227
Mo          8.244746780434774        6.760782170624424       10.000007589386426        0.219048059866138       -0.304469143894194        0.000000000000000
Se          8.257679304169805        8.649336934939107        8.276536357771949       -0.045686980917969       -0.000404691818322        0.434991254168074
Se          8.257679304169805        8.649336934939107       11.723478821000901       -0.045686980917969       -0.000404691818322       -0.434991254168074
Mo          6.635124246472908        9.609829099422136       10.000007589386426        0.097439454012577       -0.194113747382635        0.000000000000000
Se          6.625898869171985       11.481448099851777        8.249063375369332       -0.183273457392745        0.083387083408777        0.854133707151272
Se          6.625898869171985       11.481448099851777       11.750947820079988       -0.183273457392745        0.083387083408777       -0.854133707151272
