# total energy = -9523.432624652223 eV 

 CRYSTAL
 PRIMVEC
        5.974940318459000        0.000000000000000        0.000000000000000
       -2.987470159229500        5.174447689293456        0.000000000000000
        0.000000000000000        0.000000000000000       20.000067101485772
 PRIMCOORD
12 1
Se          2.974745328833277        5.156783375735963        8.396099061870604       -0.568394543931227       -0.230827574260303       -4.222156939643931
Se         -0.010581021809959        5.153676406770364        8.412392126625011        0.049331007055882        0.044441023769565       -5.033818831816316
Se          4.446570899794271        2.581718534637300        8.431033940418603        0.067184241160477       -0.103530143011450       -4.989233569094987
Se          1.464911967518504        2.574674677495868        8.396836966999935        0.328298138635026        0.299113019396557       -4.180193946207902
Se          2.963631939840944        5.162170381927086       11.607138342948140        0.137918406041138        0.399336722265937        4.287229275724551
Se         -0.022723893019163        5.156738563683575       11.641990767319744       -0.274666959621436        0.143640912902885        3.549525199016130
Se          4.446213598363227        2.576593828326157       11.613591278492075        0.558524588707759       -0.167069329592290        4.681968863485028
Se          1.469719404498736        2.570721059487144       11.596427067439238       -0.222666374960956       -0.367670487368761        4.379026698440270
Mo          1.472250986711667        0.839182757703694        9.967694186269226        0.162780984714406        0.221582654494485        1.801215920417646
Mo          4.445334087148350        0.854292784275045       10.008294503227187        0.516900981040589       -0.449568644271883        0.346319522961465
Mo         -0.027310257207612        3.442267678919802       10.001183726754190        0.205815357316221       -0.136863224832503        0.743664153608369
Mo          2.977755503765717        3.433629110207375       10.038552198493894       -0.961026083268310        0.347415584728623       -1.363546346890322
