# total energy = -38122.70558532626 eV 

 CRYSTAL
 PRIMVEC
       26.555490215667398        0.000000000000000        0.000000000000000
       -3.319436276958425        5.749422964633285        0.000000000000000
        0.000000000000000        0.000000000000000       20.000028456517960
 PRIMCOORD
48 1
Mo          1.634851577441262        0.943875066480574       10.065608944640699        0.236882782019705        0.136764237316585       -1.308738887655116
Se          1.616570777976796        2.849799776945325        8.387349762892908        0.145302874728573        0.083880992546640        0.063305473199103
Se          1.653358098572560        2.871036202470794       11.726341502846150       -0.139148936563685       -0.080342381685418        0.079596761435651
Mo         -0.024866561037951        3.818589204346238       10.065608944640699        0.236924176799088        0.136788148586664       -1.308748914961923
Se         -0.043147360502416        5.724513914810990        8.387349762892908        0.145294647194782        0.083895390730774        0.063305473199103
Se         -0.006360039906652        5.745752995885480       11.726341502846150       -0.139152793220149       -0.080335182593352        0.079596761435651
Mo          4.954290509948708        0.943875066480574       10.039858085778567        0.016537342918972        0.009538539877968       -0.061669222416510
Se          4.933128439795842        2.848134747708803        8.360395940324006        0.050728402248118        0.029287963410850        0.016790596693462
Se          4.975675646219385        2.872698576158295       11.699379713630183       -0.055607329785904       -0.032104865292384        0.017812867766935
Mo          3.294569715920474        3.818589204346238       10.039858085778567        0.016529372495612        0.009552423841240       -0.061669222416510
Se          3.273410301316630        5.722851541123489        8.360395940324006        0.050735858450616        0.029292334288177        0.016798567116821
Se          3.315954852191151        5.747412714023960       11.699379713630183       -0.055596016926942       -0.032098437531610        0.017804640233145
Mo          8.273726786907133        0.943875066480574       10.010208880952774        0.004075714551485        0.002353074664092       -0.002569047426094
Se          8.251768052047796        2.847675337728071        8.330515702733337        0.051105326139897        0.029501365068542        0.000891401864118
Se          8.295908587884279        2.873160641688048       11.669499476039515       -0.054824942744511       -0.031655950479938       -0.000291306118271
Mo          6.614008648427920        3.818589204346238       10.010208880952774        0.004098597379840        0.002366444406502       -0.002570332978249
Se          6.592049913568585        5.722389475593737        8.330515702733337        0.051101469483432        0.029507792829316        0.000891401864118
Se          6.636190449405067        5.747874779553712       11.669499476039515       -0.054827513848820       -0.031651836713043       -0.000291306118271
Mo         11.593160408316535        0.943875066480574        9.979569156341936        0.004095254944238        0.002338933590390        0.003967471060054
Se         11.572569281203307        2.848461380238456        8.300635465142667        0.048280196724572        0.027874627371895       -0.004337710080628
Se         11.613979912645618        2.872371943628642       11.639619238448846       -0.052317858932277       -0.030205590538926       -0.004471921725586
Mo          9.933444925386345        3.818589204346238        9.979569156341936        0.004073143447176        0.002376985934171        0.003967471060054
Se          9.912848487175074        5.723178173653142        8.300635465142667        0.048314649522320        0.027894424875079       -0.004313798810549
Se          9.954264429715428        5.747088737043328       11.639619238448846       -0.052319401594862       -0.030206618980650       -0.004497118547819
Mo         14.912601996373002        0.943875066480574        9.950923749046297        0.002900462771594        0.001674560236804        0.004212497300753
Se         14.895394038713249        2.850418519867350        8.273681642573766        0.039344837917622        0.022719049010403       -0.008779806996223
Se         14.930033020150566        2.870414803999748       11.612670726977985       -0.043317451186295       -0.024996018986933       -0.007195235410252
Mo         13.252881202344769        3.818589204346238        9.950923749046297        0.002970653919244        0.001715183684895        0.004228952368334
Se         13.235670589135996        5.725132657733015        8.273681642573766        0.039347666132363        0.022713906801783       -0.008779806996223
Se         13.270312226122334        5.745131597414433       11.612670726977985       -0.043305881216902       -0.025015816490116       -0.007195235410252
Mo         18.232035617782408        0.943875066480574        9.927084885479692        0.002780135089907        0.001599226880535        0.002770879114393
Se         18.219915692047977        2.853355557085203        8.252291195205045        0.026496258351550        0.015297556420911       -0.012040995702445
Se         18.244375954085626        2.867480422330916       11.591280279609267       -0.029936138807286       -0.017283477389601       -0.009176014170323
Mo         16.572314823754173        3.818589204346238        9.927084885479692        0.002774992881288        0.001607968635187        0.002770879114393
Se         16.560194898019741        5.728069694950867        8.252291195205045        0.026501657670600        0.015300641746082       -0.012061564536922
Se         16.584663126704459        5.742194560196581       11.591280279609267       -0.030004273071489       -0.017323072395968       -0.009156730888002
Mo         21.551469239191810        0.943875066480574        9.910386793232082        0.003167857619786        0.001829083605808        0.019954854767214
Se         21.545637653540449        2.856983037048663        8.238556695665503        0.025277812019258        0.014587160300184       -0.006420047460925
Se         21.557539824255109        2.863852942367456       11.577540468971680       -0.025393768823619       -0.014661722325161       -0.002116533067615
Mo         19.891756411810640        3.818589204346238        9.910386793232082        0.003069898545593        0.001772519310998        0.019985450908498
Se         19.885916859512214        5.731697174914327        8.238556695665503        0.025271641368915        0.014597701827853       -0.006420047460925
Se         19.897816374677856        5.738567080233120       11.577540468971680       -0.025394283044481       -0.014660693883437       -0.002116533067615
Mo         24.870910827248277        0.943875066480574        9.902457323853682       -0.002289568387647       -0.001296607903302       -0.031697859480184
Se         24.871941180268642        2.860945116188841        8.233821851760048        0.386933715076708        0.223396311474435        0.522692907718694
Se         24.870111506992785        2.859888207678257       11.572810936164270       -0.641107944909373       -0.370143889714540        0.727499363703850
Mo         23.211190033220042        3.818589204346238        9.902457323853682       -0.002267714001016       -0.001334660247083       -0.031697859480184
Se         23.212220386240411        5.735661909603527        8.233821851760048        0.386958911898942        0.223410966769000        0.522686737068351
Se         23.210390712964550        5.734605001092943       11.572810936164270       -0.641064493246542       -0.370118692892306        0.727491907501353
