# total energy = -9521.972269975733 eV 

 CRYSTAL
 PRIMVEC
        5.709346257185899        0.000000000000000        0.000000000000000
       -2.854673128592950        4.944436592379419        0.000000000000000
        0.000000000000000        0.000000000000000       19.999925579116063
 PRIMCOORD
12 1
Se          2.825502936695735        4.940640448053015        8.143469511409162        0.189782465062781       -0.084749254471973       -0.314017968189401
Se         -0.014901393731255        4.931201185886010        8.172099028215820       -0.258907632866531        0.105368996813634       -0.684974069755325
Se          4.261774056950081        2.462164708365431        8.132610905762620       -0.058188204291822        0.048258856558803       -0.160546180848552
Se          1.408420358277167        2.467472116646110        8.149754930703697       -0.048291766693965       -0.138262162687324       -0.202024006901371
Se          2.839843101689909        4.940643302726144       11.832895879441997       -0.152888660883445       -0.160992524556689        0.440898623429677
Se         -0.019035531356084        4.923970298851285       11.862405206506889       -0.013842568492141        0.140956680003724        0.032437051969177
Se          4.265189387881129        2.450905306611634       11.842610903033226       -0.120081369893694        0.089756480114805        0.186629262737559
Se          1.403769524816063        2.468015075475169       11.861513406621516        0.045398760124869       -0.025859652924508       -0.073942388838107
Mo          1.398128690713963        0.806819691941980       10.006119177627156        0.263627666157988        0.407153393587806       -0.069734262414681
Mo          4.259201425526593        0.807871353522553        9.983277796056031       -0.029372809853065        0.244698682010280        0.396004571080771
Mo         -0.031238688046193        3.293297080409011        9.988357401421050        0.240478728507030       -0.397408136923350        0.328678919183269
Mo          2.834398098164431        3.290830642825906        9.992871781506606       -0.057714606878004       -0.228921357525209        0.120590962767845
