# total energy = -9523.059182390616 eV 

 CRYSTAL
 PRIMVEC
        6.671972590841800        0.000000000000000        0.000000000000000
       -3.335986295420900        5.778095062983770        0.000000000000000
        0.000000000000000        0.000000000000000       19.999938398170332
 PRIMCOORD
12 1
Se          3.328989397764884        5.711764980274658        8.474690212290081        0.080973587793411        0.545978371008488       -2.775697106758650
Se         -0.060520796174267        5.713489685189390        8.579823153193011       -0.665618539402665        2.743299392685409       -5.713901889843600
Se          5.038388140176839        2.866683746564642        8.669499135194739       -3.320431834612612       -0.578720613059208       -8.598248979625291
Se          1.715248727979605        2.844269921842968        8.541136387322275        0.072521082375793        0.067728801053238       -2.861363988358697
Se          3.283135598937065        5.732917134979402       11.323366304832042       -0.943438187128460        1.973207886320985        9.447666767252002
Se         -0.029803701563290        5.757111709185572       11.388859054981005        0.311165585068395       -0.753027858393289        6.221804005800794
Se          4.991840456199572        2.821445103609698       11.259601595584108        0.959930021501153        0.879793071050067        9.596804958279119
Se          1.597415687250007        2.880893713788617       11.514510980389810       -0.680733547417598        1.133655940150847        4.045752187414126
Mo          1.598363107357907        0.958742445386194       10.134210622007423        1.017202141327485        0.483564299673504       -4.668146606716932
Mo          4.965198602447082        0.942334063193537        9.995828572895290        0.076895559248047       -2.549561283642398       -3.048966671187849
Mo         -0.084517879991748        3.866130562333044        9.874534112785563        4.806244475838876       -0.878260949992011        3.252743657007465
Mo          3.327651667260420        3.894984174999399       10.120081385651796       -1.714710601702256       -3.067656799745200       -4.898446076152055
