# total energy = -38121.41980563376 eV 

 CRYSTAL
 PRIMVEC
       13.277745107833699        0.000000000000000        0.000000000000000
       -6.638872553916849       11.498859207011680        0.000000000000000
        0.000000000000000        0.000000000000000       20.000015178772852
 PRIMCOORD
48 1
Mo          1.650118328766249        0.917435092647345       10.000007589386426       -0.461564645648911        0.793961124553346        0.000000000000000
Se          1.621779637382599        2.883251727970001        8.330514374958828        0.225339037890725       -0.376660867807935       -0.029502393510266
Se          1.621779637382599        2.883251727970001       11.669498148265003        0.225339037890725       -0.376660867807935        0.029502393510266
Mo         -0.009599809712964        3.792149230513009       10.000007589386426       -0.461570044967961        0.793983236050408        0.000000000000000
Se         -0.037938501096613        5.757967193610177        8.330514374958828        0.225338780780294       -0.376658810924487       -0.029501622178973
Se         -0.037938501096613        5.757967193610177       11.669498148265003        0.225338780780294       -0.376658810924487        0.029501622178973
Mo         -1.669317948192176        6.666864696153184       10.000007589386426       -0.461570302078392        0.793980407835668        0.000000000000000
Se         -1.697656639575826        8.632681331475840        8.330514374958828        0.225336723896846       -0.376653154495006       -0.029503936172852
Se         -1.697656639575826        8.632681331475840       11.669498148265003        0.225336723896846       -0.376653154495006        0.029503936172852
Mo         -3.329036086671388        9.541578834018848       10.000007589386426       -0.461572616072270        0.794016403296001        0.000000000000000
Se         -3.357374778055038       11.507398124890528        8.330514374958828        0.225340066332449       -0.376646726734232       -0.029483110227945
Se         -3.357374778055038       11.507398124890528       11.669498148265003        0.225340066332449       -0.376646726734232        0.029483110227945
Mo          4.938651981760701        0.970957683177023       10.000007589386426        0.278793324927819       -0.500624862319467        0.000000000000000
Se          4.959351986383814        2.851839238593889        8.330514374958828       -0.239034282105929        0.367790043719154       -0.021040889227565
Se          4.959351986383814        2.851839238593889       11.669498148265003       -0.239034282105929        0.367790043719154        0.021040889227565
Mo          3.278933843281489        3.845673148817197       10.000007589386426        0.278776869860238       -0.500574211564569        0.000000000000000
Se          3.299633847904602        5.726553376459552        8.330514374958828       -0.239037881651963        0.367808298559752       -0.021041146337996
Se          3.299633847904602        5.726553376459552       11.669498148265003       -0.239037881651963        0.367808298559752        0.021041146337996
Mo          1.619215704802276        6.720387286682862       10.000007589386426        0.278783040510581       -0.500574982895862        0.000000000000000
Se          1.639917037199900        8.601267514325217        8.330514374958828       -0.239040452756272        0.367804184792857       -0.021043974552736
Se          1.639917037199900        8.601267514325217       11.669498148265003       -0.239040452756272        0.367804184792857        0.021043974552736
Mo         -0.040501105902425        9.595101424548526       10.000007589386426        0.278777384081100       -0.500603522153698        0.000000000000000
Se         -0.019801101279312       11.475977668867349        8.330514374958828       -0.239039424314548        0.367879003928264       -0.021027776595586
Se         -0.019801101279312       11.475977668867349       11.669498148265003       -0.239039424314548        0.367879003928264        0.021027776595586
Mo          8.233159292279169        1.014135582493187       10.000007589386426        0.973809613895351       -1.770120213566757        0.000000000000000
Se          8.295033584481674        2.823702368935878        8.330514374958828       -0.512008940870824        0.934648609935861       -0.159300480810579
Se          8.295033584481674        2.823702368935878       11.669498148265003       -0.512008940870824        0.934648609935861        0.159300480810579
Mo          6.573441153799956        3.888851048133362       10.000007589386426        0.973831982502844       -1.770067248817980        0.000000000000000
Se          6.635315446002461        5.698416506801543        8.330514374958828       -0.512005598435222        0.934656837469652       -0.159302023473165
Se          6.635315446002461        5.698416506801543       11.669498148265003       -0.512005598435222        0.934656837469652        0.159302023473165
Mo          4.913723015320744        6.763565185999027       10.000007589386426        0.973827097404656       -1.770075990572633        0.000000000000000
Se          4.975597307523248        8.573130644667208        8.330514374958828       -0.512001998889189        0.934672264095509       -0.159303309025320
Se          4.975597307523248        8.573130644667208       11.669498148265003       -0.512001998889189        0.934672264095509        0.159303309025320
Mo          3.254004876841531        9.638280651639201       10.000007589386426        0.973840724257497       -1.770044108879194        0.000000000000000
Se          3.315879169044036       11.447848765856405        8.330514374958828       -0.512015368631598        0.934664293672149       -0.159295852822822
Se          3.315879169044036       11.447848765856405       11.669498148265003       -0.512015368631598        0.934664293672149        0.159295852822822
Mo         11.543157748014945        1.030476503397398       10.000007589386426        1.244458708812266       -2.495659110234582        0.000000000000000
Se         11.622618413612775        2.809589453660762        8.330514374958828       -0.492028375060515        1.060336529886941       -0.234141727715303
Se         11.622618413612775        2.809589453660762       11.669498148265003       -0.492028375060515        1.060336529886941        0.234141727715303
Mo          9.883443592859264        3.905191969037573       10.000007589386426        1.244416799812021       -2.495642398056569        0.000000000000000
Se          9.962900275133562        5.684303591526426        8.330514374958828       -0.492023489962327        1.060337301218234       -0.234141727715303
Se          9.962900275133562        5.684303591526426       11.669498148265003       -0.492023489962327        1.060337301218234        0.234141727715303
Mo          8.223725454380052        6.779907434677748       10.000007589386426        1.244417828253744       -2.495639826952260        0.000000000000000
Se          8.303182136654350        8.559019057166601        8.330514374958828       -0.492025032624912        1.060341929205991       -0.234143270377888
Se          8.303182136654350        8.559019057166601       11.669498148265003       -0.492025032624912        1.060341929205991        0.234143270377888
Mo          6.564007315900840        9.654621572543412       10.000007589386426        1.244416028480728       -2.495590718859948        0.000000000000000
Se          6.643463998175138       11.433738506130307        8.330514374958828       -0.492029660612669        1.060317760825481       -0.234114474009621
Se          6.643463998175138       11.433738506130307       11.669498148265003       -0.492029660612669        1.060317760825481        0.234114474009621
