# total energy = -38121.21592043865 eV 

 CRYSTAL
 PRIMVEC
       13.277745107833699        0.000000000000000        0.000000000000000
       -6.638872553916849       11.498859207011680        0.000000000000000
        0.000000000000000        0.000000000000000       20.000015178772852
 PRIMCOORD
48 1
Mo          1.634851577441262        0.943875066480574       10.065347373062076        0.057233810372120       -0.065493997187385       -1.779406271001528
Se          1.639635549003614        2.853765839409035        8.284731382052504       -0.055321680097114        0.094719482763513        1.274421072883509
Se          1.630291999771231        2.867067484458063       11.623717810907705        0.125851442185167       -0.189958328597554        1.707501996549595
Mo         -0.024865233263440        3.818589204346238       10.099456572469590       -0.191801553277064       -0.103332167979616       -2.877907244817581
Se         -0.009740553811107        5.749330020417530        8.293845226294522       -0.209442928386553       -0.193623694901236        0.980032971876597
Se         -0.039768174372473        5.720932906955406       11.632827671826188        0.334230190498000        0.354191987246851        1.326169946432084
Mo         -1.684584699517163        6.693304669986414       10.079656798964788       -0.130902890822123       -0.059411535722302       -1.953660294476402
Se         -1.667254586602419        8.637197092587016        8.322837182737478       -0.356819398740771       -0.460412276697374        0.096885895254733
Se         -1.701690418539585        8.582495438291762       11.661828922690718        0.314041879459480        0.557136192380606        0.310338203701585
Mo         -3.344301510221865        9.568020135626588       10.016687092790887       -0.000005656429481        0.001992605839895       -0.165191137894170
Se         -3.334101546430027       11.510238234569092        8.355990384497227        0.001433904873431       -0.033235636967721        0.401418802535804
Se         -3.354279735670402       11.458887883139056       11.694978141126937       -0.001706699040674        0.006721123775573        0.451030574182288
Mo          4.954287854399686        0.943875066480574       10.099456572469590       -0.013608597999973       -0.206544779608838       -2.064113650062155
Se          4.969415189401041        2.874614554777355        8.293845226294522       -0.215227398862160       -0.218430480610987        1.008224359299428
Se          4.939386241065165        2.846218769089742       11.632827671826188        0.341896452217761        0.399666080727989        1.368064291383049
Mo          3.294569715920474        3.818589204346238       10.079656798964788       -0.013393396569264        0.013524779999482       -2.895015887114133
Se          3.311899828835218        5.762481626946840        8.322837182737478       -0.358023961109791       -0.510812091814733        0.126599633539243
Se          3.277463996898052        5.707781300426097       11.661828922690718        0.330727060876250        0.610900297487000        0.374796817183517
Mo          1.634851577441262        6.693304669986414       10.016687092790887        0.008350175466098       -0.006946609623520       -0.591549652232528
Se          1.645052869007610        8.635524096703428        8.355990384497227       -0.290427314818064       -0.567147301230668       -0.956149469724403
Se          1.624874679767235        8.584168434175348       11.694978141126937        0.160879910187931        0.393341678347379       -0.659769534208888
Mo         -0.024865233263440        9.568020135626588        9.944668603325997       -0.003954358428075        0.006719581112987        1.852403779005879
Se         -0.027263194029915       11.494647506263474        8.375333403570320       -0.033038690377610        0.424073059717606       -0.055720201265093
Se         -0.022245534153665       11.474478611444674       11.714318504651008        0.029020311452227       -0.383164476158920        0.043582789151040
Mo          8.273725459132622        0.943875066480574       10.079656798964788       -0.020458534101454       -0.119240618784473       -1.263006141080438
Se          8.291054244272855        2.887767489081176        8.322837182737478       -0.355528961487812       -0.536832438758587        0.114221051840955
Se          8.256618412335689        2.833065834785922       11.661828922690718        0.309492567494177        0.655546495380466        0.322573060668970
Mo          6.614007320653410        3.818589204346238       10.016687092790887        0.014494857655472       -0.002964226158471       -0.551024677436826
Se          6.624207284445247        5.760808631063253        8.355990384497227       -0.288854313201486       -0.603758798156817       -0.994793681717675
Se          6.604029095204872        5.709454296309684       11.694978141126937        0.156247808663861        0.435507789023861       -0.694503867878641
Mo          4.954287854399686        6.693304669986414        9.944668603325997       -0.004267518932977       -0.005840263439124        2.055839836394050
Se          4.951889893633211        8.619932040623299        8.375333403570320        0.043390727659117       -0.257642135325375       -1.685252688296545
Se          4.956908881283972        8.599760490255479       11.714318504651008       -0.013182051795020        0.115168246668590       -1.244560010322062
Mo          3.294569715920474        9.568020135626588        9.902649851157745       -0.001776890188324        0.024418806069441        3.502705903760239
Se          3.280934799469239       11.473587674747940        8.370382132419607       -0.053979820757964        0.709587765531429       -0.627603476633937
Se          3.308429026264031       11.495538442960211       11.709368561274808        0.048230574411398       -0.497434636092188       -0.401887514851433
Mo         11.593157752767514        0.943875066480574       10.016687092790887        0.009588933522435       -0.008443506552535        0.006481753964354
Se         11.603357716559351        2.886094493197589        8.355990384497227        0.334873480796248       -0.253880609720515       -0.080675853914366
Se         11.583188821740553        2.834740158444020       11.694978141126937       -0.276173369636396        0.236263660101967        0.040402590230568
Mo          9.933443597611834        3.818589204346238        9.944668603325997       -0.030953267672141       -0.028248723048934        1.818174410222521
Se          9.931045636845358        5.745216574983124        8.375333403570320        0.630076364758854        0.069508776566734       -0.928779293018040
Se          9.936064624496119        5.725046352389814       11.714318504651008       -0.411029076224009       -0.077932228505654       -0.632529455380588
Mo          8.273725459132622        6.693304669986414        9.902649851157745       -0.049956813844825       -0.007862436978578        3.466080265760388
Se          8.260089214906877        8.598873536882275        8.370382132419607        0.540785254524076        0.417411328451584       -1.332013809417242
Se          8.287583441701669        8.620820321771012       11.709368561274808       -0.355276221934184       -0.269266097908812       -0.941795508585094
Mo          6.614007320653410        9.568020135626588        9.913404824695091       -0.013605769785232        0.018282094303427        3.140525238313212
Se          6.596584263522910       11.458477600815225        8.343820003331388        0.279703752963828        0.726611304275335       -0.341051073120783
Se          6.631652116127210       11.510648516892925       11.682807759961097       -0.321832325517391       -0.603434067682522       -0.070514592572626
