# total energy = -9524.902555427183 eV 

 CRYSTAL
 PRIMVEC
        7.568240097473099        0.000000000000000        0.000000000000000
       -3.784120048736550        6.554285130414141        0.000000000000000
        0.000000000000000        0.000000000000000       20.000020487584848
 PRIMCOORD
12 1
Se          3.763877276947838        6.545760264768346        8.332516553244391       -0.025041527533212       -0.016736346392530        1.727093554277871
Se         -0.032998283648992        6.548010302549326        8.278111502479696        0.002094935791415       -0.018418877052694        2.084525647175606
Se          5.643596529013174        3.269519076956886        8.347102822384249        0.006397421743001       -0.007838268598069        1.583142823305686
Se          1.867300526889391        3.270484027569313        8.348504460450304       -0.049949871863189       -0.035052122162412        1.634139134622858
Se          3.755672547858168        6.527809912905161       11.694993296022501       -0.014327478764921        0.056545525748456       -1.532716525813939
Se         -0.010631106864920        6.532664182103680       11.723952409931471       -0.066709358194505        0.037836628129645       -1.822238554804613
Se          5.659636657075758        3.251365896259087       11.669969666964215       -0.050567451118341        0.030762491732373       -1.367765786172711
Se          1.862232076496114        3.259883950488793       11.662255359832860       -0.040166305744521       -0.002673691371492       -1.251252080618937
Mo          1.855481206329168        1.073979436096028       10.038350948126222        0.125670693552206       -0.027904709292317       -0.336818264095985
Mo          5.656439832458585        1.083491957074541       10.002171733164264       -0.071559746474455       -0.104033565235259       -0.087844864060661
Mo         -0.037521820755252        4.357692747355724       10.029827596128449        0.090547866021282        0.058648431963230       -0.310355430100459
Mo          3.747838662533273        4.354227250215091       10.037377672449688        0.093610822585239        0.028864759641500       -0.319909653714716
