# total energy = -9507.381530934706 eV 

 CRYSTAL
 PRIMVEC
        5.709346257185899        0.000000000000000        0.000000000000000
       -2.854673128592950        4.944436592379419        0.000000000000000
        0.000000000000000        0.000000000000000       19.999925579116063
 PRIMCOORD
12 1
Se          2.787632272037196        4.969865449674299        8.635190383417051        3.498094371070645        0.698568783792026      -14.623248577383515
Se         -0.060690921648512        4.913889877099597        8.427551165931837        0.089702744034736        1.105095599259596       -7.224190929875839
Se          4.262446617939177        2.454542731112087        8.477087166863059        0.283384031672505        1.378347680179491       -9.728888243089752
Se          1.415894463462448        2.416355197736274        8.463323645840862       -1.378891211630528       -0.783229078054889       -8.492393529876292
Se          2.773712314927551        4.944969845319839       11.635238312018222        0.552518231930238       -1.159601725069724        6.750235618338386
Se          0.005952564407742        4.912692056254839       11.364433742216631        1.933063177852664        0.885946237883662       17.199600767931337
Se          4.285041355751990        2.443445474791995       11.397003849810002       -2.030203612434041        2.431901122676999       12.990365684326299
Se          1.393512684265029        2.437458083372084       11.638985926901439        0.649078882489814        1.608521679724309        7.193833387072218
Mo          1.426448760953482        0.810992082186731       10.117159111113912       -3.671643397743842        1.783688188118639       -5.306251244682329
Mo          4.279032839750927        0.851706572215975        9.991188095295362       -2.470918916126448       -1.848538895007776       -0.363078495071919
Mo         -0.001964586047098        3.317731369585889       10.021622336453918        1.951112587216077       -4.408604168196375       -5.184438493146591
Mo          2.782293462352101        3.298695838229806        9.933472884916096        0.594703111668181       -1.692095168195528        6.788454055457997
