# total energy = -38122.57897573416 eV 

 CRYSTAL
 PRIMVEC
       13.277745107833699        0.000000000000000        0.000000000000000
       -6.638872553916849       11.498859207011680        0.000000000000000
        0.000000000000000        0.000000000000000       20.000015178772852
 PRIMCOORD
48 1
Mo          1.635599114490832        0.944306593196579       10.000007589386426       -0.003706503972635       -0.002139930116831        0.000000000000000
Se          1.670186312722228        2.880752856340707        8.330096125987929       -0.464466136862229       -0.268172093025102        0.003258617601913
Se          1.670186312722228        2.880752856340707       11.669917725010411       -0.464466136862229       -0.268172093025102       -0.003258617601913
Mo         -0.024119023988380        3.819020731062243       10.000007589386426       -0.003693648451087       -0.002134273687350        0.000000000000000
Se          0.010468174243016        5.755466994206372        8.330096125987929       -0.464474621506450       -0.268165151043467        0.003251418509846
Se          0.010468174243016        5.755466994206372       11.669917725010411       -0.464474621506450       -0.268165151043467       -0.003251418509846
Mo         -1.683837162467592        6.693736196702418       10.000007589386426       -0.003688506242468       -0.002129645699593        0.000000000000000
Se         -1.649249964236196        8.630182459846546        8.330096125987929       -0.464475135727312       -0.268164122601743        0.003251418509846
Se         -1.649249964236196        8.630182459846546       11.669917725010411       -0.464475135727312       -0.268164122601743       -0.003251418509846
Mo         -3.343555300946805        9.568450334568082       10.000007589386426       -0.003695191113673       -0.002131445472610        0.000000000000000
Se         -3.308968102715409       11.504897925486722        8.330096125987929       -0.464476935500329       -0.268153323963643        0.003258617601913
Se         -3.308968102715409       11.504897925486722       11.669917725010411       -0.464476935500329       -0.268153323963643       -0.003258617601913
Mo          4.953542972899136        0.943443539764570       10.000007589386426        0.045703178875119        0.026364874921333        0.000000000000000
Se          4.919177513011041        2.840080467526391        8.330932623929723        0.443467927966202        0.256036223573635       -0.041038424326318
Se          4.919177513011041        2.840080467526391       11.669078571519597        0.443467927966202        0.256036223573635        0.041038424326318
Mo          3.293824834419924        3.818159005404745       10.000007589386426        0.045684152703228        0.026397527946064        0.000000000000000
Se          3.259459374531829        5.714795933166566        8.330932623929723        0.443471527512236        0.256035195131911       -0.041028139909079
Se          3.259459374531829        5.714795933166566       11.669078571519597        0.443471527512236        0.256035195131911        0.041028139909079
Mo          1.634106695940712        6.692873143270409       10.000007589386426        0.045716291507098        0.026383901093223        0.000000000000000
Se          1.599741236052617        8.589511398806740        8.330932623929723        0.443470241960081        0.256037509125790       -0.041035853222008
Se          1.599741236052617        8.589511398806740       11.669078571519597        0.443470241960081        0.256037509125790        0.041035853222008
Mo         -0.025612770313011        9.567588608910583       10.000007589386426        0.045707292642014        0.026399584829511        0.000000000000000
Se         -0.059976902426596       11.464228192221427        8.330932623929723        0.443468699297495        0.256040080230099       -0.041028139909079
Se         -0.059976902426596       11.464228192221427       11.669078571519597        0.443468699297495        0.256040080230099        0.041028139909079
Mo          8.274471668407681        0.944306593196579       10.000007589386426       -0.003691334457209       -0.002148671871484        0.000000000000000
Se          8.309058866639079        2.880752856340707        8.330096125987929       -0.464474621506450       -0.268170036141655        0.003250647178553
Se          8.309058866639079        2.880752856340707       11.669917725010411       -0.464474621506450       -0.268170036141655       -0.003250647178553
Mo          6.614753529928469        3.819020731062243       10.000007589386426       -0.003694676892811       -0.002133245245627        0.000000000000000
Se          6.649340728159866        5.755466994206372        8.330096125987929       -0.464479506604638       -0.268161808607864        0.003250647178553
Se          6.649340728159866        5.755466994206372       11.669917725010411       -0.464479506604638       -0.268161808607864       -0.003250647178553
Mo          4.955035391449258        6.693736196702418       10.000007589386426       -0.003706246862204       -0.002122446607527        0.000000000000000
Se          4.989622589680653        8.630182459846546        8.330096125987929       -0.464461251764040       -0.268161294387002        0.003264788252256
Se          4.989622589680653        8.630182459846546       11.669917725010411       -0.464461251764040       -0.268161294387002       -0.003264788252256
Mo          3.295317252970045        9.568450334568082       10.000007589386426       -0.003689020463330       -0.002129902810024        0.000000000000000
Se          3.329904451201441       11.504897925486722        8.330096125987929       -0.464465108420505       -0.268154609515798        0.003264788252256
Se          3.329904451201441       11.504897925486722       11.669917725010411       -0.464465108420505       -0.268154609515798       -0.003264788252256
Mo         11.592418182365007        0.943443539764570       10.000007589386426        0.045677724942454        0.026357161608404        0.000000000000000
Se         11.558048739153380        2.840080467526391        8.330932623929723        0.443480783487750        0.256034166690187       -0.041038681436748
Se         11.558048739153380        2.840080467526391       11.669078571519597        0.443480783487750        0.256034166690187        0.041038681436748
Mo          9.932697388336774        3.818159005404745       10.000007589386426        0.045697779556069        0.026388786191411        0.000000000000000
Se          9.898331928448679        5.714795933166566        8.330932623929723        0.443469727739219        0.256037252015359       -0.041037138774163
Se          9.898331928448679        5.714795933166566       11.669078571519597        0.443469727739219        0.256037252015359        0.041037138774163
Mo          8.272979249857562        6.692873143270409       10.000007589386426        0.045702150433395        0.026380815768052        0.000000000000000
Se          8.238613789969465        8.589511398806740        8.330932623929723        0.443472555953959        0.256048564874321       -0.041038681436748
Se          8.238613789969465        8.589511398806740       11.669078571519597        0.443472555953959        0.256048564874321        0.041038681436748
Mo          6.613261111378349        9.567588608910583       10.000007589386426        0.045664869420907        0.026379530215897        0.000000000000000
Se          6.578895651490254       11.464228192221427        8.330932623929723        0.443477698162579        0.256041880003116       -0.041030196792527
Se          6.578895651490254       11.464228192221427       11.669078571519597        0.443477698162579        0.256041880003116        0.041030196792527
