# total energy = -9523.448909448296 eV 

 CRYSTAL
 PRIMVEC
        7.037104892651799        0.000000000000000        0.000000000000000
       -3.518552446325899        6.094308764658774        0.000000000000000
        0.000000000000000        0.000000000000000       19.999937665154004
 PRIMCOORD
12 1
Se          3.466344165127316        6.110034582962383        7.953110762318499        0.135822956028862       -0.013388254360645        3.329753116176424
Se          0.010067985969917        6.056005099017582        8.000563368030628       -0.184286729601136        0.072929630850579        3.005170737489548
Se          5.316594672921489        2.979544693362746        8.036024043295189       -0.229152756913068        0.170512038262767        2.896293211735113
Se          1.776139941327701        3.066801275479182        8.157827884461122        0.015827975239969       -0.286520007598853        2.247990288525918
Se          3.452442364411882        6.120664129902734       11.940247838104828        0.082831981988347       -0.237447910746942       -3.458782957509047
Se         -0.014404953715258        6.099488073859766       11.978506466274707       -0.038858899203119        0.059733180871426       -3.613666281115834
Se          5.313305530094664        3.025916399763364       12.069032487324270       -0.461433519329124        0.060396525783287       -3.683700591403438
Se          1.650270060954795        3.071889806027058       11.902759069210203        0.319462538675286       -0.190232665427382       -3.235243949745432
Mo          1.687369677948855        0.984089155792616        9.846832985587028        0.143075527065217        0.121022651181417        0.921680731129826
Mo          5.277944078009089        1.046675759286883        9.926865275820667       -0.023814853667129       -0.394587892606214        0.499525972337569
Mo         -0.022400512294289        3.991717527360957        9.808014203867693       -0.009373217870865        0.420478141672005        1.393381441298243
Mo          3.457312744708086        4.025184590809430       10.125111780014498        0.249898740476328        0.217104305008125       -0.302401461808461
