# total energy = -9530.488744707069 eV 

 CRYSTAL
 PRIMVEC
        6.572434350304899        0.000000000000000        0.000000000000000
       -3.286217175152450        5.691892458222800        0.000000000000000
        0.000000000000000        0.000000000000000       20.000068893967864
 PRIMCOORD
12 1
Se          3.266632635275411        5.681227369002560        8.390509027207461        0.089082850785705       -0.270426437283709       -1.173661037655159
Se         -0.011995349932741        5.668654302090427        8.397995029932458       -0.115198328589012        0.059749378828576       -1.266409254744547
Se          4.910514141131231        2.827052452084579        8.348156917497532       -0.104497906673562        0.206052670243991       -0.295156089864173
Se          1.614462632460421        2.832047502190810        8.337098796703144        0.069627561585835        0.171244545880555       -0.353703220317607
Se          3.269972746412236        5.681993057604371       11.647257378463447       -0.027909594390505        0.074345023772982        0.745994602554538
Se         -0.024949618037192        5.680326945496569       11.645727972990132        0.079282572489025        0.152351300082750        0.663816452392107
Se          4.907392234814837        2.821039331897485       11.658701958397636        0.007289337827981       -0.012940625100354        0.489451871431923
Se          1.612928626283060        2.824080397271371       11.613239115509705       -0.026509113873098        0.020972240742500        1.328609667311409
Mo          1.619001555622742        0.944888653345324        9.990367710541504        0.103503403526631       -0.164694143431136        0.261150150045313
Mo          4.920550905627582        0.925877229743632        9.981526471853474       -0.227345013473029        0.380969781520296        0.846692931279459
Mo         -0.018676229449826        3.790434621204791       10.019446789080993       -0.274754634278391       -0.431435674018409       -0.401656372574006
Mo          3.249999775665095        3.782185558851723       10.034311663851078        0.427428607951989       -0.186187804127611       -0.845129442748827
