# total energy = -9498.713221374948 eV 

 CRYSTAL
 PRIMVEC
        6.373252033781299        0.000000000000000        0.000000000000000
       -3.186626016890650        5.519395592555450        0.000000000000000
        0.000000000000000        0.000000000000000       20.000010552493670
 PRIMCOORD
12 1
Se          3.145480939085761        5.514114715920258        8.801155779879556        0.570155493272832       -0.222998304527318      -15.538664041531849
Se         -0.019360027703017        5.500630189267184        8.856350054467713       -0.000684427967200        0.757080947226850      -17.062919577283949
Se          4.754132453200787        2.744894643778861        8.865058466046673       -0.377748444930871       -0.368160282739728      -17.134496035936415
Se          1.576393298946042        2.749973488324581        8.793295010821090        0.269601627021208       -0.446769997230947      -15.194683966381636
Se          3.166099046740247        5.510164574309721       11.166981501867969       -0.188515167748608       -0.083242844457012       16.505229569035066
Se         -0.035120442657355        5.508371141187415       11.189603997287081        0.556394428787303       -0.576292976370139       16.396129899868289
Se          4.752444178737039        2.742541639127989       11.176374400715357        0.546235481439443        0.153852053668230       16.517748790139088
Se          1.562776845975869        2.753953584219678       11.173619243861154       -0.503489072520296        0.158711697923694       15.849744780158030
Mo          1.574488333913145        0.898939551462412       10.026252240097556       -0.779847818777410        0.912929720501870       -0.852764594106442
Mo          4.757170582445291        0.902697220861529       10.018218755908975       -0.154977940245378       -0.373404049979038        0.471794041254853
Mo         -0.030734370607707        3.671822331547623        9.976667064624332        0.927796616950933       -0.521053571610930        0.342074115525550
Mo          3.166174251114245        3.666385947562808       10.023895411495465       -0.864921289502816        0.609347864704899       -0.299192466519722
