# total energy = -38121.268450814365 eV 

 CRYSTAL
 PRIMVEC
       13.277745107833699        0.000000000000000        0.000000000000000
       -6.638872553916849       11.498859207011680        0.000000000000000
        0.000000000000000        0.000000000000000       20.000015178772852
 PRIMCOORD
48 1
Mo          1.577831628850180        0.902343607557781       10.000007589386426        0.549883364233820        1.333756761028680        0.000000000000000
Se          1.598116040051418        2.887241690374905        8.330644496860883        0.692915439636206       -0.516205754435289       -0.139119368864125
Se          1.598116040051418        2.887241690374905       11.669368026362948        0.692915439636206       -0.516205754435289        0.139119368864125
Mo          0.039980618294198        3.789792430756369       10.000007589386426       -2.054206928047060        0.980411695541392        0.000000000000000
Se          0.016751203228043        5.753467365793131        8.330437364037200       -0.786699297541477       -0.358964471066222       -0.146963551002106
Se          0.016751203228043        5.753467365793131       11.669577814735652       -0.786699297541477       -0.358964471066222        0.146963551002106
Mo         -1.692171603071779        6.763529336087235       10.000007589386426        0.875632252945936       -1.931042032754933        0.000000000000000
Se         -1.688979633147856        8.564753715278675        8.330459936203884        0.027263732987948        0.941264832655605       -0.152201147591073
Se         -1.688979633147856        8.564753715278675       11.669557898117990        0.027263732987948        0.941264832655605        0.152201147591073
Mo         -3.401587013715103        9.526847175821707       10.000007589386426        0.896968304948236        0.717417806595707        0.000000000000000
Se         -3.381205674974578       11.511158382305066        8.330644496860883        0.324418342231928       -0.429116795041634        0.290100784570752
Se         -3.381205674974578       11.511158382305066       11.669368026362948        0.324418342231928       -0.429116795041634       -0.290100784570752
Mo          5.019135033731835        0.915078292890704       10.000007589386426       -1.383572164136480        0.633175059672714        0.000000000000000
Se          4.995905618665680        2.878751900152957        8.330437364037200       -0.824942931483323       -0.428474018964248       -0.126990441394294
Se          4.995905618665680        2.878751900152957       11.669577814735652       -0.824942931483323       -0.428474018964248        0.126990441394294
Mo          3.286982812365857        3.888815198221571       10.000007589386426        0.235373543790004       -2.376644234408486        0.000000000000000
Se          3.290174782289781        5.690038249638500        8.330459936203884        0.076680614927769        0.931232126529342       -0.147845696890710
Se          3.290174782289781        5.690038249638500       11.669557898117990        0.076680614927769        0.931232126529342        0.147845696890710
Mo          1.577568729497045        6.652133037956043       10.000007589386426        1.998805029495488        1.353891593097562        0.000000000000000
Se          1.597948740463059        8.636441588890380        8.330644496860883        0.739488423099243       -0.535046035484317       -0.135224402945601
Se          1.597948740463059        8.636441588890380       11.669368026362948        0.739488423099243       -0.535046035484317        0.135224402945601
Mo          0.039800040960732        9.538818390810929       10.000007589386426       -1.963431776404815        1.063307440916616        0.000000000000000
Se          0.016633031296583       11.503158540877596        8.330437364037200       -0.086904096993799       -0.354757373084519       -0.072906233801362
Se          0.016633031296583       11.503158540877596       11.669577814735652       -0.086904096993799       -0.354757373084519        0.072906233801362
Mo          8.266137227803494        1.014099732581396       10.000007589386426        0.747999292584687       -2.148939523442551        0.000000000000000
Se          8.269330525501928        2.815322783998324        8.330459936203884        0.083397110715585        0.959247650417400       -0.163570056627004
Se          8.269330525501928        2.815322783998324       11.669557898117990        0.083397110715585        0.959247650417400        0.163570056627004
Mo          6.556723144934682        3.777417572315867       10.000007589386426        1.943519859079569        1.371407498316745        0.000000000000000
Se          6.577103155900696        5.761726123250204        8.330644496860883        0.781151882883210       -0.546339096943117       -0.144822592443551
Se          6.577103155900696        5.761726123250204       11.669368026362948        0.781151882883210       -0.546339096943117        0.144822592443551
Mo          5.018954456398369        6.664102925170755       10.000007589386426       -2.226257772239087        1.020990663527595        0.000000000000000
Se          4.995787446734220        8.628441747462910        8.330437364037200       -0.797306645480922       -0.400117566644745       -0.141281667588450
Se          4.995787446734220        8.628441747462910       11.669577814735652       -0.797306645480922       -0.400117566644745        0.141281667588450
Mo          3.287424961277948        9.638287290511755       10.000007589386426        0.048185837196412       -2.177946722262800        0.000000000000000
Se          3.290458926035088       11.439438642105102        8.330459936203884       -0.324079727794361        0.812086895714753       -0.436375022507470
Se          3.290458926035088       11.439438642105102       11.669557898117990       -0.324079727794361        0.812086895714753        0.436375022507470
Mo         11.535877560372318        0.902703434450203       10.000007589386426        0.598529686212071        1.056299639010530        0.000000000000000
Se         11.556257571338332        2.887010657610029        8.330644496860883        0.788220877071864       -0.562689777689216       -0.109870743349211
Se         11.556257571338332        2.887010657610029       11.669368026362948        0.788220877071864       -0.562689777689216        0.109870743349211
Mo          9.998108871836006        3.789387459530579       10.000007589386426       -1.840624521722145        1.013702868362199        0.000000000000000
Se          9.974941862171857        5.753727609597245        8.330437364037200       -0.372922739252292       -0.088804143078551        0.242405514076600
Se          9.974941862171857        5.753727609597245       11.669577814735652       -0.372922739252292       -0.088804143078551       -0.242405514076600
Mo          8.266579376715585        6.763573152646091       10.000007589386426        0.047429161198114       -2.184532348841260        0.000000000000000
Se          8.269613341472725        8.564723176464927        8.330459936203884       -0.332136797369172        0.687781972771775       -0.453733061922047
Se          8.269613341472725        8.564723176464927       11.669557898117990       -0.332136797369172        0.687781972771775        0.453733061922047
Mo          6.556461573356058        9.527208330488641       10.000007589386426        1.837097995051178        1.176072219276647        0.000000000000000
Se          6.576938511861359       11.510928677314700        8.330645824635395       -0.144209641176156       -0.561762123254333       -0.060921031062434
Se          6.576938511861359       11.510928677314700       11.669368026362948       -0.144209641176156       -0.561762123254333        0.060921031062434
