# total energy = -9342.374548111757 eV 

 CRYSTAL
 PRIMVEC
        3.850505334623600        0.000000000000000        0.000000000000000
       -1.925252667311800        3.334633882417403        0.000000000000000
        0.000000000000000        0.000000000000000       20.000006021201802
 PRIMCOORD
12 1
Se          1.903774933605803        3.326007980366779        7.613997719796442        1.142196891556713       -0.133253394381906       -5.352484328155645
Se         -0.014508704100862        3.330990534269782        7.619928653163363       -1.152429115377396       -0.225166773901986       -4.979777818775785
Se          2.873054555429399        1.658717992695420        7.599887542997714       -0.305756495821982        0.924117880904840       -6.159191188102682
Se          0.943271768591414        1.662822631382129        7.643560744604081        0.292898917390826       -0.539237963950594       -3.751950812410651
Se          1.905908883662251        3.328111896481617       12.404667080155880        0.301517516146841        0.232160177623939        6.889477885988507
Se         -0.013532986049068        3.322076999470662       12.338672114074168       -0.346175284009700       -0.091286287178982        3.064944541809065
Se          2.866942263261217        1.658609793495517       12.385784201994888        0.779386819774710        0.001170623792134        5.736488784092493
Se          0.951430219294415        1.655844360564190       12.394835199834453       -0.764147884532057       -0.209792341462220        6.286874284997967
Mo          0.945044926298009        0.543803402954090       10.022317459116113        0.942342125361302        0.300719188258728        0.067000664312776
Mo          2.877428729489531        0.551641876663783        9.971458059403737       -0.967106487849945        0.930221682535692       -5.057731387447209
Mo         -0.008623591747423        2.217174108649886       10.037369084469157       -0.916357259656920       -0.108421926070784        1.856234981537527
Mo          1.906417150366422        2.220025407850175       10.034689902857327        0.993630514128039       -1.081230866168862        1.400114392153639
