# total energy = -9528.942942165015 eV 

 CRYSTAL
 PRIMVEC
        6.771563749103600        0.000000000000000        0.000000000000000
       -3.385781874551800        5.864343495817446        0.000000000000000
        0.000000000000000        0.000000000000000       19.999962507379962
 PRIMCOORD
12 1
Se          3.433697459640457        5.814362583785312        8.256772857663616       -0.409282525066537        0.972251267573338        0.558455168891401
Se          0.022701667468870        5.835034136442200        8.296745398474576       -0.602942472538538        0.389124553058869        0.235082237671733
Se          5.094296163709632        2.874253208849890        8.493330665674803       -0.807984441678448        0.626654482033285       -2.674823171609387
Se          1.660700277525411        2.889422865960632        8.174660198485613       -0.382554095995835        0.226383934682123        1.381897603899675
Se          3.386396055383844        5.804674507529469       11.859302330478600       -0.281649050484427        0.372498249930787       -2.522732581503623
Se         -0.030049491293022        5.882289494065319       11.519420617001717        0.091983827778161       -0.052513777080664        1.298204816188493
Se          5.023228602162789        2.958934999314305       11.754545562123592       -0.325687182208687       -0.036605326275806       -1.533658835543386
Se          1.676251173675228        2.892996220151034       11.799571720960508       -0.298200534477101        0.588415733189627       -2.042657013267737
Mo          1.673056349898401        1.020183479748701       10.039116152065175       -0.766788151547525       -0.366204186581029       -0.896032937200425
Mo          5.030402396798590        0.992112639383167        9.964253806193337        1.434834327639258       -1.283181082376549        1.680089910842986
Mo         -0.107910285592965        3.929866187290276        9.983783673202126        2.171732877367500       -0.744927851376509        1.020133714461225
Mo          3.295639495080108        3.935389074684045        9.830837071426622        0.176537421212177       -0.691896253887904        3.496041087169045
