# total energy = -38122.18218514228 eV 

 CRYSTAL
 PRIMVEC
       13.277745107833699        0.000000000000000        0.000000000000000
       -6.638872553916849       11.498859207011680        0.000000000000000
        0.000000000000000        0.000000000000000       20.000015178772852
 PRIMCOORD
48 1
Mo          1.683495924418321        0.998135899638247       10.000007589386426       -0.596726313649359       -0.216058379775003        0.000000000000000
Se          1.646901131126620        2.903700783210576        8.289191376634227        0.146417191336328       -0.317644510818009        0.304118188155942
Se          1.646901131126620        2.903700783210576       11.710827785462158        0.146417191336328       -0.317644510818009       -0.304118188155942
Mo          0.032671219612336        3.828380213588755       10.000007589386426       -1.233372621250385       -0.340581332363430        0.000000000000000
Se         -0.045682082043502        5.724298815340243        8.284059528150047        0.216258411690286       -0.230016133740212        0.333351387044999
Se         -0.045682082043502        5.724298815340243       11.715958306171824        0.216258411690286       -0.230016133740212       -0.333351387044999
Mo         -1.649341580677440        6.653316085045151       10.000007589386426       -0.671833412739689        0.023859847992546        0.000000000000000
Se         -1.726920789793491        8.550769594131104        8.304108923262877        0.254198912434037        0.041690199268786        0.139036322194927
Se         -1.726920789793491        8.550769594131104       11.695908911058996        0.254198912434037        0.041690199268786       -0.139036322194927
Mo         -3.350459728402878        9.499929203164596       10.000007589386426        0.434045602003025        0.413031452260280        0.000000000000000
Se         -3.385150493046115       11.409258327474994        8.338471727601950        0.689793604783561        0.558900741268245        0.134101858804055
Se         -3.385150493046115       11.409258327474994       11.661548762268943        0.689793604783561        0.558900741268245       -0.134101858804055
Mo          5.011825635049973        0.953664747948580       10.000007589386426       -1.672304092772831       -0.453543057313572        0.000000000000000
Se          4.933472333394135        2.849584677474578        8.284059528150047        0.332680585930640       -0.266822520373024        0.308037322454976
Se          4.933472333394135        2.849584677474578       11.715958306171824        0.332680585930640       -0.266822520373024       -0.308037322454976
Mo          3.329811506985686        3.778601947179486       10.000007589386426       -0.608231234103265        0.283439824636023        0.000000000000000
Se          3.252233625644146        5.676054128490929        8.304108923262877        0.331197058744034        0.150920480534490        0.201560693904791
Se          3.252233625644146        5.676054128490929       11.695908911058996        0.331197058744034        0.150920480534490       -0.201560693904791
Mo          1.628694687034759        6.625215065298931       10.000007589386426       -0.457568121110159        0.090427281229164        0.000000000000000
Se          1.594003922391522        8.534548172932864        8.338471727601950        0.093741434684164        0.295976272138916       -0.060421465495090
Se          1.594003922391522        8.534548172932864       11.661548762268943        0.093741434684164        0.295976272138916        0.060421465495090
Mo         -0.069084107796059        9.508736331494621       10.000007589386426       -0.004669639646989       -0.221289805713628        0.000000000000000
Se         -0.042022735491783       11.433858005836280        8.368520592555489        0.369170983843809        0.043596673114311       -0.480668979110529
Se         -0.042022735491783       11.433858005836280       11.631498569540895        0.369170983843809        0.043596673114311        0.480668979110529
Mo          8.308965922423324        0.903886481539312       10.000007589386426       -0.971816236724164        0.311615271212134        0.000000000000000
Se          8.231388041081782        2.801338662850754        8.304108923262877        0.271679850634610        0.052319401594862        0.144773484351238
Se          8.231388041081782        2.801338662850754       11.695908911058996        0.271679850634610        0.052319401594862       -0.144773484351238
Mo          6.607849102472396        3.750499599658757       10.000007589386426       -0.433052898629111        0.084352790187441        0.000000000000000
Se          6.573158337829159        5.659832707292688        8.338471727601950        0.110580111028213        0.296022552016488       -0.064000699804403
Se          6.573158337829159        5.659832707292688       11.661548762268943        0.110580111028213        0.296022552016488        0.064000699804403
Mo          4.910070307641578        6.634022193628957       10.000007589386426        0.110459012015234       -0.190874413063043        0.000000000000000
Se          4.937131679945854        8.559143867970615        8.368520592555489       -0.189984553861511        0.289843159918936       -0.315783288408332
Se          4.937131679945854        8.559143867970615       11.631498569540895       -0.189984553861511        0.289843159918936        0.315783288408332
Mo          3.236261826053933        9.549678258534627       10.000007589386426        0.472603424891497       -0.418093185314474        0.000000000000000
Se          3.310465832363572       11.485938633247246        8.377969035974225       -0.205504253694766       -0.585184883514257       -1.045563221634746
Se          3.310465832363572       11.485938633247246       11.622048798347649       -0.205504253694766       -0.585184883514257        1.045563221634746
Mo         11.587008829008077        0.875785461793092       10.000007589386426        0.507478912187843        0.974955812196545        0.000000000000000
Se         11.552308769943263        2.785118569427024        8.338471727601950        0.422268658713170        0.456965454260003        0.216038068050958
Se         11.552308769943263        2.785118569427024       11.661548762268943        0.422268658713170        0.456965454260003       -0.216038068050958
Mo          9.889224723079217        3.759308055763293       10.000007589386426       -0.019516224372007       -0.158060694312518        0.000000000000000
Se          9.916286095383491        5.684428402330440        8.368520592555489       -0.066863367342646        0.129573629894090       -0.184034761378801
Se          9.916286095383491        5.684428402330440       11.631498569540895       -0.066863367342646        0.129573629894090        0.184034761378801
Mo          8.215414913717058        6.674964120668963       10.000007589386426        0.436034094076025       -0.378186046884355        0.000000000000000
Se          8.289620247801210        8.611223167607072        8.377969035974225       -0.758624638254299       -0.229463089203230       -0.662379719303935
Se          8.289620247801210        8.611223167607072       11.622048798347649       -0.758624638254299       -0.229463089203230        0.662379719303935
Mo          6.573212776584101        9.600563888885890       10.000007589386426        0.847376330804935       -0.493295415264257        0.000000000000000
Se          6.654398221271440       11.537267740285110        8.361693176021042       -0.086463409715144       -0.342527144104891       -0.466329673265784
Se          6.654398221271440       11.537267740285110       11.638318019428278       -0.086463409715144       -0.342527144104891        0.466329673265784
