# total energy = -9526.369304917822 eV 

 CRYSTAL
 PRIMVEC
        6.638793177329500        0.000000000000000        0.000000000000000
       -3.319396588664750        5.749360861396781        0.000000000000000
        0.000000000000000        0.000000000000000       19.999981854470612
 PRIMCOORD
12 1
Se          3.294532316577698        5.733563853031325        8.065985001488171        0.040445270562106        0.016262748978713        3.051778945081626
Se         -0.020081685482104        5.738667757226056        8.061150632296439       -0.008940758126000       -0.007806386904630        3.151837840164764
Se          4.953175042794878        2.858491733535472        8.030572350921659        0.056261675832683        0.003124663067386        3.165361077501660
Se          1.625665184988113        2.856718511877808        8.037239027030333        0.062323054242427       -0.004061059256921        3.175442634609804
Se          3.291086782918664        5.726133051827940       12.001525329423600        0.057899469277861        0.025228446816515       -3.221004916968760
Se         -0.021540892222481        5.742908618307734       11.994684053054362        0.007007544795656       -0.054107347531718       -3.147617629551082
Se          4.956778579731532        2.855147109532734       11.944807463792403        0.041028654129941        0.053173008225630       -2.981829738346668
Se          1.647845392993571        2.856762327912778       11.993214224244902       -0.039132464701654        0.016869015374903       -3.196640618310682
Mo          1.638405692974726        0.944109416541206       10.035499840302888       -0.013340688930919       -0.000326016026450       -0.092590351284782
Mo          4.963834952999715        0.948279906415204       10.032168493886504       -0.057510204085396       -0.080741159963828       -0.128734421447456
Mo         -0.015647635518966        3.819327589486960       10.030998738528659       -0.016015408744135       -0.003341407160680       -0.141106061164108
Mo          3.306967440078154        3.810029959642109        9.963913069592426       -0.130026401363001        0.035725237270650        0.365103239715683
