# total energy = -9518.72186421791 eV 

 CRYSTAL
 PRIMVEC
        7.169928382150800        0.000000000000000        0.000000000000000
       -3.584964191075400        6.209337227152147        0.000000000000000
        0.000000000000000        0.000000000000000       20.000070686449963
 PRIMCOORD
12 1
Se          3.554275463614118        6.184294101298970        7.931500967074740       -0.010138378513384        0.036900231940110        3.831836308860264
Se         -0.027537543937327        6.189732491976831        7.933140729695738        0.016695208723578        0.006115114489814        3.813335156469664
Se          5.339525969385581        3.092952950599638        7.869557087809987        0.050040117624454       -0.033425898686627        3.875422440446906
Se          1.745622311603315        3.100084878361364        7.872658081835266        0.004350308491744       -0.018655161538741        3.894069374451857
Se          3.550946465866285        6.186617875087626       12.124766184048843        0.047785002034555       -0.027062672630942       -3.882355423217585
Se         -0.021418727055999        6.192041208915884       12.099785436572592       -0.030732152701520        0.030499724871937       -3.870906809948058
Se          5.362005845842138        3.092525622868063       12.069435129730948       -0.071858251684793        0.002728455893286       -3.838246586124813
Se          1.774208816062950        3.087024853813276       12.139425102626150        0.044712532384653       -0.012893316781058       -3.909942344017243
Mo          1.776306020114729        1.022323521376133       10.017699178787248       -0.029793956738968       -0.044255390038416        0.012016055990643
Mo          5.350046405300710        1.009315120312397        9.979779578552566       -0.022851203771913        0.014715201294800        0.055283113532471
Mo         -0.025338526902521        4.135629747674184        9.964928505894617       -0.011160906697289       -0.016107711388847        0.041071591571911
Mo          3.552595549394180        4.112326763439355       10.033414944808083        0.012951423738454        0.061441422574685       -0.021582620905585
