# total energy = -9528.877359571028 eV 

 CRYSTAL
 PRIMVEC
        6.671972590841800        0.000000000000000        0.000000000000000
       -3.335986295420900        5.778095062983770        0.000000000000000
        0.000000000000000        0.000000000000000       19.999938398170332
 PRIMCOORD
12 1
Se          3.337627600678247        5.809396622393704        8.185386808778590       -0.170497897189064       -0.047512207867312        1.568942099983225
Se          0.042500465403662        5.744859965917009        8.410513175136034       -0.914967320667182        0.686027965411806       -1.145482248643445
Se          4.895974218028061        2.911823644325241        8.167063570452362        0.886551218727697       -0.660455761949105        0.913952505796206
Se          1.585743738399589        2.911401975657500        8.553440171977046       -0.149263918027853       -1.030015753874948       -2.878163583917242
Se          3.348465552954811        5.805819110690495       11.559574150465615       -1.053816209357944       -1.470212980048982        1.653102057347451
Se         -0.042032092927785        5.794212547171466       11.466617559540969       -0.006979005537820       -0.978002827913783        4.538351604741790
Se          4.935675790929866        2.861316144615310       11.664344136059603       -0.054035099500619        0.512212315221709        0.201743756531631
Se          1.629910195359184        2.870935794696786       11.701042654098268        0.137852842881245        0.746688029386821       -0.072760966407873
Mo          1.631295964066302        0.952625580914910       10.104583727717788       -0.290532730094755        0.787856294480771       -3.922528156722880
Mo          4.924562286185300        0.961126341192902       10.080753443215078        2.338145804029564        1.063448337432779       -3.773620079531468
Mo         -0.093839292898413        3.873070081024779        9.984091905910740       -0.453707350878952       -1.413315984341412        0.526249516310083
Mo          3.357227854558363        3.795254864697791        9.863544706731187       -0.268750591494749        1.803282059840793        2.390213751622954
