# total energy = -38121.22321309282 eV 

 CRYSTAL
 PRIMVEC
       13.277745107833699        0.000000000000000        0.000000000000000
       -6.638872553916849       11.498859207011680        0.000000000000000
        0.000000000000000        0.000000000000000       20.000015178772852
 PRIMCOORD
48 1
Mo          1.721333514652114        0.993804699184072       10.000007589386426       -1.685806504164820       -0.973300792352493        0.000000000000000
Se          1.602785823005843        2.841838440978668        8.343247732517238        0.899356603741369        0.519254312815113       -0.482673154919817
Se          1.602785823005843        2.841838440978668       11.656768774030123        0.899356603741369        0.519254312815113        0.482673154919817
Mo          0.061615376172902        3.868520164824247       10.000007589386426       -1.685764852275006       -0.973299249689907        0.000000000000000
Se         -0.056932315473369        5.716553906618843        8.343247732517238        0.899367916600331        0.519241971514427       -0.482682925116193
Se         -0.056932315473369        5.716553906618843       11.656768774030123        0.899367916600331        0.519241971514427        0.482682925116193
Mo         -1.598102762306310        6.743234302689912       10.000007589386426       -1.685781307342587       -0.973286137057929        0.000000000000000
Se         -1.716650453952582        8.591268044484508        8.343247732517238        0.899360717508264        0.519254569925544       -0.482682925116193
Se         -1.716650453952582        8.591268044484508       11.656768774030123        0.899360717508264        0.519254569925544        0.482682925116193
Mo         -3.257820900785522        9.617949768330085       10.000007589386426       -1.685784392667758       -0.973265568223452        0.000000000000000
Se         -3.376368592431794       11.465987493448214        8.343247732517238        0.899365602606452        0.519238371968394       -0.482673154919817
Se         -3.376368592431794       11.465987493448214       11.656768774030123        0.899365602606452        0.519238371968394        0.482673154919817
Mo          5.001403932914834        0.971077182882993       10.000007589386426       -1.050347789644372       -0.606446373491581        0.000000000000000
Se          4.962281056954602        2.864966945182004        8.347273544833934        0.018960351620284        0.010946733708304       -0.573276042573323
Se          4.962281056954602        2.864966945182004       11.652737650615386        0.018960351620284        0.010946733708304        0.573276042573323
Mo          3.341685794435622        3.845792648523168       10.000007589386426       -1.050371700914450       -0.606404721601766        0.000000000000000
Se          3.302562918475390        5.739682410822179        8.347273544833934        0.018989662209412        0.010931564192878       -0.573266529487377
Se          3.302562918475390        5.739682410822179       11.652737650615386        0.018989662209412        0.010931564192878        0.573266529487377
Mo          1.681967655956409        6.720506786388833       10.000007589386426       -1.050368101368417       -0.606413977577281        0.000000000000000
Se          1.642844779996177        8.614396548687843        8.347273544833934        0.018958294736836        0.010945705266581       -0.573277585235908
Se          1.642844779996177        8.614396548687843       11.652737650615386        0.018958294736836        0.010945705266581        0.573277585235908
Mo          0.022250845251708        9.595222252029007       10.000007589386426       -1.050353960294715       -0.606438660178652        0.000000000000000
Se         -0.016873358483035       11.489108031004486        8.347273544833934        0.018961637172438        0.010979643843467       -0.573266529487377
Se         -0.016873358483035       11.489108031004486       11.652737650615386        0.018961637172438        0.010979643843467        0.573266529487377
Mo          8.242632963413609        0.925923555094783       10.000007589386426        1.095465013847346        0.632443066275787        0.000000000000000
Se          8.315279490222098        2.884344486392376        8.337483863365927       -0.927264141248426       -0.535363566866546       -0.475273516716956
Se          8.315279490222098        2.884344486392376       11.662528659857902       -0.927264141248426       -0.535363566866546        0.475273516716956
Mo          6.582914824934395        3.800639020734958       10.000007589386426        1.095474784043722        0.632472633975347        0.000000000000000
Se          6.655561351742886        5.759058624258040        8.337483863365927       -0.927270311898770       -0.535352511118015       -0.475273516716956
Se          6.655561351742886        5.759058624258040       11.662528659857902       -0.927270311898770       -0.535352511118015        0.475273516716956
Mo          4.923196686455182        6.675353158600623       10.000007589386426        1.095444445012870        0.632479061736121        0.000000000000000
Se          4.995841885489162        8.633772762123705        8.337483863365927       -0.927243058193088       -0.535354053780600       -0.475253976324203
Se          4.995841885489162        8.633772762123705       11.662528659857902       -0.927243058193088       -0.535354053780600        0.475253976324203
Mo          3.263478547975970        9.550067296466286       10.000007589386426        1.095489953559149        0.632481375729999        0.000000000000000
Se          3.336123747009950       11.508488227763880        8.337483863365927       -0.927251799947741       -0.535339141375605       -0.475253976324203
Se          3.336123747009950       11.508488227763880       11.662528659857902       -0.927251799947741       -0.535339141375605        0.475253976324203
Mo         11.509498664166587        0.895569302003765       10.000007589386426        2.423320576264766        1.399094435074044        0.000000000000000
Se         11.634107646454584        2.883993953921530        8.321946246040740       -0.382399829737263       -0.220787669041974        0.605762459745243
Se         11.634107646454584        2.883993953921530       11.678068932732110       -0.382399829737263       -0.220787669041974       -0.605762459745243
Mo          9.849776542363841        3.770284767643940       10.000007589386426        2.423356314614669        1.399127345209206        0.000000000000000
Se          9.974392163524394        5.758709419561705        8.321946246040740       -0.382412428148379       -0.220785869268958        0.605762716855674
Se          9.974392163524394        5.758709419561705       11.678068932732110       -0.382412428148379       -0.220785869268958       -0.605762716855674
Mo          8.190058403884629        6.645000233284114       10.000007589386426        2.423358114387685        1.399124516994466        0.000000000000000
Se          8.314674025045180        8.633423557427369        8.321946246040740       -0.382407543050191       -0.220774042189134        0.605762459745243
Se          8.314674025045180        8.633423557427369       11.678068932732110       -0.382407543050191       -0.220774042189134       -0.605762459745243
Mo          6.530340265405417        9.519714371149778       10.000007589386426        2.423311577399683        1.399109861699901        0.000000000000000
Se          6.654955886565968       11.508137695293033        8.321946246040740       -0.382393144866058       -0.220774813520427        0.605769658837310
Se          6.654955886565968       11.508137695293033       11.678068932732110       -0.382393144866058       -0.220774813520427       -0.605769658837310
