# total energy = -9515.58209768379 eV 

 CRYSTAL
 PRIMVEC
        8.364863528117699        0.000000000000000        0.000000000000000
       -4.182431764058849        7.244180936938131        0.000000000000000
        0.000000000000000        0.000000000000000       19.999945357962428
 PRIMCOORD
12 1
Se          4.160997637754400        7.219813252994371        8.860161317885547       -0.065016800227534        0.053303877434986       -2.600083483324890
Se         -0.042693426961160        7.240112267318054        8.838257922737169        0.022960475705069        0.029793699628537       -2.332416869407044
Se          6.230186324655232        3.596303267184584        8.829550099804399        0.000124955669444       -0.069501320364236       -2.365528836257476
Se          2.053885169076141        3.609817540700611        8.857278785913756       -0.064622392826450       -0.049882766040710       -2.901245158635291
Se          4.140256122150080        7.230521951283067       11.172726545623314        0.001275524847964       -0.030090662176289        2.624444953768228
Se         -0.032432248871218        7.227114942368064       11.206284705125418       -0.055521969122827       -0.059687672325147        2.406996635003486
Se          6.245848695125281        3.606133654802828       11.187868621581913       -0.012647262098635        0.131645939967581        2.352246768504814
Se          2.064579647096839        3.611827617406417       11.139454464453873        0.035568657018199       -0.017224599100912        2.777333614651673
Mo          2.050200446692005        1.185133028177363       10.017557295090024        0.272178387760230       -0.229027544133193        0.015881454209608
Mo          6.226329286082418        1.191287894761352        9.986971171599460       -0.164391010233041       -0.003524212677089       -0.264288697075971
Mo         -0.035296378143245        4.813504672669692       10.012499062114570       -0.302569612030305        0.266920479447218        0.085552724568704
Mo          4.142007724572868        4.811734667547142       10.028707658173003        0.332660788427456       -0.022725476771176        0.201106893994157
