# total energy = -38122.3157408514 eV 

 CRYSTAL
 PRIMVEC
       13.277745107833699        0.000000000000000        0.000000000000000
       -6.638872553916849       11.498859207011680        0.000000000000000
        0.000000000000000        0.000000000000000       20.000015178772852
 PRIMCOORD
48 1
Mo          1.634851577441262        0.943875066480574        9.964486965673949        0.030368084331289        0.024230601233982        0.564100542623861
Se          1.705096160159745        2.876955421239867        8.316101382644272       -0.324832804246626       -0.082007171725847        0.071292865847125
Se          1.564831388615100        2.843876574852721       11.655087811499472        0.304078850260006        0.062953746129557        0.024115158650484
Mo         -0.024865233263440        3.818589204346238        9.932893898964370        0.150332726089329        0.079548424674632        0.945744981914981
Se         -0.033450623250165        5.802425067554736        8.325058549494019        0.036234830144801       -0.300712503387523        0.025170339859120
Se         -0.016058104933414        5.667837859818202       11.664047633898237       -0.044689392445867        0.300410398631152        0.007348216116670
Mo         -1.684584699517163        6.693304669986414       10.028277236495514        0.027443196068754        0.022691281083860       -0.438857423718332
Se         -1.755543624922448        8.600575743805100        8.344339163165102        0.299829071946765        0.022375292364217       -0.023015754447724
Se         -1.613400052445045        8.619116787073677       11.683328247569325       -0.319824807272501       -0.042640222311162       -0.067756826090212
Mo         -3.344301510221865        9.568020135626588       10.070176488957795        0.166521427263927        0.090439622529850       -0.996306005272548
Se         -3.343171574113188       11.416267649117421        8.337462618973756        0.059357028310940        0.303954665921855       -0.010605033945566
Se         -3.345209707987240       11.552858468590728       11.676447720054444       -0.073517899516602       -0.302842663307978       -0.032039045022060
Mo          4.954287854399686        0.943875066480574        9.980891619754678        0.000282821474050        0.007585014823579       -0.072576618228879
Se          4.894889861659792        2.894143462281958        8.337757384915150        0.338859978028192       -0.210505565797686        0.004201184441791
Se          5.013911568806414        2.826691189359651       11.676747797093881       -0.314035451698706        0.204009927870060       -0.032067327169465
Mo          3.294569715920474        3.818589204346238       10.070696976566023       -0.004043575747616       -0.006935810985419       -0.347334594942872
Se          3.252367730869735        5.677391197423288        8.344198419066959        0.205245343490795        0.318532056025663        0.018126028271837
Se          3.336996094863535        5.792871729949650       11.683188831245690       -0.230573549154521       -0.312029733226832       -0.042233987830254
Mo          1.634851577441262        6.693304669986414       10.026756934680668        0.000504450665532        0.004952461121039       -0.133049762920591
Se          1.689903764207362        8.569882908213829        8.324750505807517       -0.289708948273978        0.228333603080048        0.020728242943525
Se          1.580023784567484        8.649809622664947       11.663738262437226        0.314108985281959       -0.232704994627131       -0.012259796679187
Mo         -0.024865233263440        9.568020135626588        9.932207439542294       -0.002161527393032       -0.005801953984912        0.328134359290508
Se          0.023494969968312       11.537988721844464        8.316206276830625       -0.318305541735993       -0.273932395120200        0.072160099330733
Se         -0.073003698151891       11.431138723638195       11.655198016783867        0.292697857033820        0.274761062039165        0.015812034393250
Mo          8.273725459132622        0.943875066480574       10.063286667021339       -0.012611523748733        0.005693196272618       -0.222642977911740
Se          8.290107541046666        2.794909578669541        8.334411393147976       -0.104229226273215        0.392633596220531        0.012312247207102
Se          8.257565115561876        2.925923745197557       11.673397822003174        0.118791189751166       -0.368075950518375       -0.019991878669272
Mo          6.614007320653410        3.818589204346238        9.964486965673949        0.009706175878951       -0.006609023627677        0.172106637155544
Se          6.684250575597382        5.751670886880042        8.316101382644272       -0.373116343406801       -0.079806820657741        0.049989466869556
Se          6.543985804052737        5.718592040492896       11.655087811499472        0.363708415627757        0.063007996430489        0.001999804931961
Mo          4.954287854399686        6.693304669986414        9.932893898964370       -0.011079659801108        0.004703835334306        0.322882107406977
Se          4.945705119961983        8.677140533194912        8.325058549494019        0.072314879810167       -0.372666400152631        0.025230246589532
Se          4.963096310504223        8.542553325458377       11.664047633898237       -0.058855405860148        0.394091412364041       -0.007770134333866
Mo          3.294569715920474        9.568020135626588       10.028277236495514        0.011017696187248       -0.004931892286563       -0.132530656960494
Se          3.223610790515189       11.475288553896252        8.344339163165102        0.380941756483322       -0.001601797984844       -0.050311112018679
Se          3.365754362992592       11.493828269390320       11.683328247569325       -0.382687022088638       -0.021047831209201       -0.093347541503942
Mo         11.593157752767514        0.943875066480574        9.927253512842562        0.010653884927448       -0.002430464903810        0.450212448790992
Se         11.629157703078382        2.921799677567064        8.317612390037544       -0.519368726956887       -0.507448316046560       -0.621940876502602
Se         11.557388835221520        2.799033646300034       11.656598818892745        0.356937412428579        0.458061001806298       -0.496607768946239
Mo          9.933443597611834        3.818589204346238        9.980891619754678        0.001551918561239        0.008923274616695        0.114109980134783
Se          9.874044277097429        5.768857600147622        8.337757384915150        0.446501573941030       -0.139084401845516        0.268165408153898
Se          9.993065984244049        5.701405327225316       11.676747797093881       -0.449279395037059        0.099923912106887        0.272726804309455
Mo          8.273725459132622        6.693304669986414       10.070696976566023        0.010712763216136       -0.002884779035306       -0.385719639621743
Se          8.231522146307372        8.552106663063462        8.344198419066959        0.410166727838588        0.437959079872578        0.516898152825849
Se          8.316150510301172        8.667585867815315       11.683188831245690       -0.582486509541394       -0.499397931342954        0.659296193905502
Mo          6.614007320653410        9.568020135626588       10.026756934680668        0.000745620249767        0.008806803591473       -0.143554523798085
Se          6.669058179644998       11.444598373854006        8.324750505807517       -0.425077333060913        0.134502179745051       -0.290521160125362
Se          6.559178200005120       11.524527743854144       11.663738262437226        0.420869977968779       -0.176985821803761       -0.289823105305322
