# total energy = -38122.13454506261 eV 

 CRYSTAL
 PRIMVEC
       13.277745107833699        0.000000000000000        0.000000000000000
       -6.638872553916849       11.498859207011680        0.000000000000000
        0.000000000000000        0.000000000000000       20.000015178772852
 PRIMCOORD
48 1
Mo          1.634461211735091        1.001540313483896       10.000007589386426       -0.811577302840602       -0.452549839718796        0.000000000000000
Se          1.652533550601363        2.913453286992280        8.288718688908387       -0.030212532520562       -0.441964860386844        0.343906541566960
Se          1.652533550601363        2.913453286992280       11.711297817638975       -0.030212532520562       -0.441964860386844       -0.343906541566960
Mo          0.025268876714718        3.847083245347649       10.000007589386426       -0.377298244566270       -0.028900755101833        0.000000000000000
Se         -0.051042307743534        5.726176288498491        8.262888163575608        0.278867886952796       -0.085021277307922        0.445840285912616
Se         -0.051042307743534        5.726176288498491       11.737128342971754        0.278867886952796       -0.085021277307922       -0.445840285912616
Mo         -1.653208060052842        6.653251024094122       10.000007589386426        0.266902738827482        0.429637186553885        0.000000000000000
Se         -1.718287599924378        8.551275476219711        8.330514374958828        0.258825357528626        0.383775884763729       -0.051729333155823
Se         -1.718287599924378        8.551275476219711       11.669498148265003        0.258825357528626        0.383775884763729        0.051729333155823
Mo         -3.375044801244543        9.514771066646132       10.000007589386426        0.510413570646754        0.194566775961976        0.000000000000000
Se         -3.338801868198200       11.457318453667311        8.398140586342045        0.089527394720825        0.323645468276479       -0.458881184081042
Se         -3.338801868198200       11.457318453667311       11.601878575754339        0.089527394720825        0.323645468276479        0.458881184081042
Mo          5.004423292152355        0.972369107481985       10.000007589386426       -0.692833164298301        0.151663529679948        0.000000000000000
Se          4.928112107694102        2.851462150632826        8.262888163575608        0.291925497299234       -0.084188753732493        0.450134030109551
Se          4.928112107694102        2.851462150632826       11.737128342971754        0.291925497299234       -0.084188753732493       -0.450134030109551
Mo          3.325946355384795        3.778535558453948       10.000007589386426       -0.399533154635186        0.168031179714490        0.000000000000000
Se          3.260866815513260        5.676560010579538        8.330514374958828        0.234459001987100        0.422941773821408        0.001543176806587
Se          3.260866815513260        5.676560010579538       11.669498148265003        0.234459001987100        0.422941773821408       -0.001543176806587
Mo          1.604109614193094        6.640056928780468       10.000007589386426       -0.065467771923427       -0.178193983718815        0.000000000000000
Se          1.640352547239437        8.582601660252624        8.398140586342045       -0.177957185011906        0.256996531033249       -0.543989878935489
Se          1.640352547239437        8.582601660252624       11.601878575754339       -0.177957185011906        0.256996531033249        0.543989878935489
Mo         -0.075240998202561        9.575164890269113       10.000007589386426        0.342181330575258       -0.238890814485457        0.000000000000000
Se          0.012392119509141       11.526297667277017        8.372310061009264       -0.317036958869665       -0.616436142175874       -0.751576212900122
Se          0.012392119509141       11.526297667277017       11.627707773312608       -0.317036958869665       -0.616436142175874        0.751576212900122
Mo          8.305100770822433        0.903821420588283       10.000007589386426        0.297841865425920        0.693515021161191        0.000000000000000
Se          8.240019903176387        2.801845872713873        8.330514374958828        0.195726086895148        0.430728620333285       -0.037477444857602
Se          8.240019903176387        2.801845872713873       11.669498148265003        0.195726086895148        0.430728620333285        0.037477444857602
Mo          6.583264029630731        3.765341463140293       10.000007589386426       -0.084014689970737       -0.147530736612791        0.000000000000000
Se          6.619506962677074        5.707887522386960        8.398140586342045       -0.190828133185472        0.270775593248944       -0.546761272270744
Se          6.619506962677074        5.707887522386960       11.601878575754339       -0.190828133185472        0.270775593248944        0.546761272270744
Mo          4.903912089460564        6.700449424628939       10.000007589386426        0.406458166982505       -0.251187892177132        0.000000000000000
Se          4.991546534946779        8.651579546087820        8.372310061009264       -0.350427890537682       -0.227354012338113       -0.327396966574532
Se          4.991546534946779        8.651579546087820       11.627707773312608       -0.350427890537682       -0.227354012338113        0.327396966574532
Mo          3.294179350214304        9.625684054855400       10.000007589386426        0.344048466524847       -0.060974510032072        0.000000000000000
Se          3.312251689080576       11.537598356138295        8.288718688908387       -0.202511231168029       -0.596700602606263       -0.026665179904687
Se          3.312251689080576       11.537598356138295       11.711297817638975       -0.202511231168029       -0.596700602606263        0.026665179904687
Mo         11.562418445068367        0.890625997500118       10.000007589386426        0.816503538697683        0.213327866998270        0.000000000000000
Se         11.598658722565689        2.833173384521296        8.398140586342045       -0.078395798612664        0.293956926814202       -0.393273029862314
Se         11.598658722565689        2.833173384521296       11.601878575754339       -0.078395798612664        0.293956926814202        0.393273029862314
Mo          9.883066504898203        3.825735286763274       10.000007589386426        0.261049105645948       -0.169612408864858        0.000000000000000
Se          9.970700950384416        5.776865408222156        8.372310061009264       -0.610303029955893       -0.446832732176099       -0.538845613432958
Se          9.970700950384416        5.776865408222156       11.627707773312608       -0.610303029955893       -0.446832732176099        0.538845613432958
Mo          8.273333765651941        6.750968589215224       10.000007589386426        0.297957822230280       -0.030073435777415        0.000000000000000
Se          8.291406104518213        8.662882890498119        8.288718688908387       -0.288335207241390       -0.430626290381766        0.051372463877658
Se          8.291406104518213        8.662882890498119       11.711297817638975       -0.288335207241390       -0.430626290381766       -0.051372463877658
Mo          6.664141430631568        9.596512848853489       10.000007589386426       -0.074947690623138        0.166088967519062        0.000000000000000
Se          6.587830246173315       11.475608547553351        8.262888163575608        0.377834576925241        0.316846182929897        0.808244894545005
Se          6.587830246173315       11.475608547553351       11.737128342971754        0.377834576925241        0.316846182929897       -0.808244894545005
