# total energy = -9515.950873463074 eV 

 CRYSTAL
 PRIMVEC
        6.638793177329500        0.000000000000000        0.000000000000000
       -3.319396588664750        5.749360861396781        0.000000000000000
        0.000000000000000        0.000000000000000       19.999981854470612
 PRIMCOORD
12 1
Se          3.298434599207333        5.688788512446826        8.540980031257012       -0.370109694027223        1.244606547310065       -4.450556362994304
Se          0.021898059295421        5.731389648265750        8.756167217789701       -0.599249852529174        0.950886162092340       -7.867022286003898
Se          4.876968999791630        2.897683185178519        8.758875181526731        2.249758951180452       -3.650652387939883      -11.374938532647423
Se          1.715734355904260        2.811219542836980        8.703827636258952       -1.479288978261664       -0.007284966950655       -9.966943191564177
Se          3.248933765639210        5.741148010357106       11.312587886842820        2.779987765630412       -2.823703737984687        9.400169728900115
Se          0.017787318560019        5.683276986351007       11.332812306378237       -2.319672676675939       -1.143795089995524        8.989959806509127
Se          5.047032309098008        2.813711745795749       11.207287332739925       -1.671885774101669        1.781117598029959       12.218869583677572
Se          1.697420581045279        2.807906785041492       11.268902636098039       -0.694888762193779        3.053625255086307       10.863355109539826
Mo          1.595848373190773        0.992147060093044       10.084549235934951        0.580354806958353       -4.830188656052775       -3.054795621768011
Mo          4.976736783660538        0.889616874383050       10.178049999044459       -0.289413014167950        0.644641156451546       -6.071890112603490
Mo         -0.044264817389162        3.761845598761052        9.952167716703094        3.654370461881911        1.086727630072231       -0.943749547860346
Mo          3.323232483362611        3.778311133599465        9.957284898484179       -1.839963747914593        3.694020232770645        2.257541683925435
