# total energy = -9511.822830110654 eV 

 CRYSTAL
 PRIMVEC
        7.833781241021299        0.000000000000000        0.000000000000000
       -3.916890620510650        6.784250399255471        0.000000000000000
        0.000000000000000        0.000000000000000       19.999996028483224
 PRIMCOORD
12 1
Se          3.889870342254119        6.778029593571976        7.903251213066676        0.031306280293841       -0.005733819720709        3.686882075876065
Se         -0.018345932288348        6.766122246085622        7.895507520309927       -0.035972577505228       -0.025449818897567        3.701714262416949
Se          5.835071078565249        3.373498817970959        7.892302720404225        0.023697354200183        0.034341726041685        3.712262989178135
Se          1.940932108912897        3.362958465311165        7.861902948920318       -0.028427671908878       -0.003229821233646        3.712628857321383
Se          3.896352796231064        6.759753381936672       12.083142237669637       -0.052652873823810        0.000031624583007       -3.694145959771382
Se         -0.029922694206329        6.775778948221430       12.095887799748779        0.051697194351953        0.001949668397925       -3.714603722541542
Se          5.852169872880026        3.387558888542344       12.140245802647938       -0.031545392994628       -0.034266135574985       -3.725178931677118
Se          1.920163188086702        3.374764757019508       12.082781100354426        0.028617419406922        0.020610229255717       -3.718127163887338
Mo          1.923201128451970        1.121931431373472        9.968404374496572        0.011205129691413       -0.028649043989929       -0.004143077484395
Mo          5.844733264347925        1.102905526873403       10.011600627637687        0.008158371084607       -0.013868793756098       -0.009626728755786
Mo         -0.024860504768381        4.516677814204452        9.976652562765244        0.010049932525136        0.007382668914418        0.040034150983011
Mo          3.896032394578306        4.498422753778501        9.996129693064795       -0.016132908211081        0.046881515980182        0.012302734121157
