# total energy = -9506.593667681602 eV 

 CRYSTAL
 PRIMVEC
        8.895998732938999        0.000000000000000        0.000000000000000
       -4.447999366469499        7.704157302693497        0.000000000000000
        0.000000000000000        0.000000000000000       20.000011039389658
 PRIMCOORD
12 1
Se          4.407658681015241        7.699809828112709        8.168560462148351       -0.061155515775464       -0.006163194140402        2.500099921598022
Se         -0.027761743245883        7.690066040700521        8.194161367302003        0.040762544833904        0.012274194863321        2.455511830661951
Se          6.648313453077799        3.835774064869018        8.185153278985029        0.004622074217263       -0.024482055235455        2.486464584113230
Se          2.181385180504352        3.832511012533776        8.174279699733757        0.007805358462906        0.023877845722713        2.500839628307877
Se          4.416987025286601        7.683035532901879       11.804827521833237        0.070169036153424       -0.028706636726463       -2.434320017611416
Se         -0.023144719903487        7.694613675252799       11.811001344953898       -0.080922422817651       -0.012556502116508       -2.415200000413510
Se          6.639918299073525        3.820121555098411       11.835647709443505        0.015053044401073        0.062788424122454       -2.481420591678771
Se          2.171922506652125        3.835184260153023       11.825876344435246       -0.010585236442383       -0.019851496373971       -2.427733105480801
Mo          2.200326541006526        1.251538029742890       10.037480803957207       -0.011759202670120        0.008151686213402       -0.024812699249662
Mo          6.647182771638843        1.258362150370927        9.979002066686359       -0.004309170822792       -0.009808762940901       -0.088802343305534
Mo         -0.040515936629297        5.111787655925842       10.020633561556766        0.031143529391047       -0.027376861577568       -0.036373412667085
Mo          4.421986576574513        5.121173824188966       10.014370778448777       -0.000824038931208        0.021853101078949       -0.034253794274299
