# total energy = -9519.342242688392 eV 

 CRYSTAL
 PRIMVEC
        8.099322384569499        0.000000000000000        0.000000000000000
       -4.049661192284749        7.014215668096800        0.000000000000000
        0.000000000000000        0.000000000000000       19.999964538468078
 PRIMCOORD
12 1
Se          4.011800099865841        7.004409008553563        8.381060553445703        0.018212674487069       -0.034127295942270        1.503627308766216
Se         -0.027617069466905        6.990155011088960        8.350965091329119        0.001062894521565        0.005737933487604        1.591686860036723
Se          6.059653829818593        3.489209951442978        8.331801284634990       -0.035715467074274        0.017765816558071        1.755795048795715
Se          1.985476798607990        3.477407618864184        8.336937064959045        0.035121027757908        0.026747455242592        1.701812142712579
Se          4.019507415046998        7.007298846780378       11.666387882366390        0.013853624240672       -0.026011862299633       -1.624971605096756
Se         -0.038813572731334        7.007789665716882       11.616699349469295        0.005022909379121       -0.031536394129545       -1.398892346275314
Se          6.059062579284519        3.476913560198725       11.670925122766226       -0.015911279019598        0.037874680473427       -1.730416963708384
Se          1.999789921126001        3.481146266076901       11.641924689036035       -0.003190740448141        0.018987091105103       -1.565380349183217
Mo          1.986025932665664        1.151926126145397       10.014512453591957        0.014141330812910        0.019909860441797       -0.073890195420624
Mo          6.048306679157810        1.149011989951429       10.000185562225891        0.016831477251983        0.034720706816912       -0.018295206935405
Mo         -0.031221267928039        4.664865472310687       10.013139618447772        0.002915118066158       -0.073520470620912       -0.149671695171346
Mo          4.035263836813939        4.653139273362307        9.994392116924208       -0.052343312864941        0.003452478866852        0.008597001479814
