# total energy = -9529.91105493061 eV 

 CRYSTAL
 PRIMVEC
        6.705204922078999        0.000000000000000        0.000000000000000
       -3.352602461039500        5.806875092643465        0.000000000000000
        0.000000000000000        0.000000000000000       20.000050559404965
 PRIMCOORD
12 1
Se          3.332872395556282        5.779446781389209        8.320617527742334        0.027776925408133       -0.390818653688426        0.142834614591413
Se          0.004883400744750        5.794837238246856        8.191015974405929       -0.052315030717536        0.221476982107362        0.849962604629903
Se          5.030016085055823        2.881121283300069        8.276754759224062       -0.661456692856810       -0.032553780104830        0.365001423985025
Se          1.632878993964858        2.890286627908059        8.275221278858384        0.891937682256187       -0.305352575334953        0.559512406983484
Se          3.354232496356057        5.824997249986368       11.515385499600523       -0.263481627433206       -0.241296853898326        2.048018794194855
Se         -0.066444557654850        5.770059494498298       11.536408999113211        0.724847526718989       -0.306755626956670        0.563610490142463
Se          5.026024476565708        2.893507808352626       11.747411069683160        0.290813237574926       -0.065655205427593       -1.148014786388343
Se          1.614408836486499        2.890747275486206       11.790910416094656        0.141691244504960       -0.080307414666809       -1.810272121127144
Mo          1.658033570230038        0.906633555211037        9.972311997239039        0.349294290647605        1.654444173797032       -1.314075471760001
Mo          5.031235091310656        0.965228999984100        9.983433920643291       -0.790389603556962        0.300833602400502       -0.957374600927899
Mo         -0.017055359239800        3.852863048824985        9.834532105459173       -0.048153441282112       -0.080022536309311        2.345456482023315
Mo          3.362172129504291        3.840168084346013       10.075657979662058       -0.610564511264174       -0.673991854807549       -1.644660093457502
