# total energy = -9529.186057485706 eV 

 CRYSTAL
 PRIMVEC
        6.373252033781299        0.000000000000000        0.000000000000000
       -3.186626016890650        5.519395592555450        0.000000000000000
        0.000000000000000        0.000000000000000       20.000010552493670
 PRIMCOORD
12 1
Se          3.224787775418525        5.474640067473424        8.427113441968153       -0.553195975026234        0.980941085918727       -2.026880203003528
Se         -0.013503009083972        5.546146043316840        8.338042146194431       -0.115329454908799        0.238735519785160       -1.663723032139736
Se          4.693371780286327        2.766495506896956        8.237210288442775       -0.090331379038418       -0.631713901093601       -0.109976929957195
Se          1.595943249559666        2.795540328390508        8.245822463916022       -0.407064947599557       -0.959905081789350        0.048888777114641
Se          3.211368255936195        5.496782657014390       11.765505709539237       -0.374026514332378       -0.288102779411807        0.183545994449557
Se          0.027136669834637        5.491327790598677       11.629817899089625       -0.456949513413284       -1.051582176823383        1.855720246454757
Se          4.835664191818545        2.693786898394765       11.542795603844764       -0.910867180624756        1.224031799293820        1.992397580445679
Se          1.571672631164621        2.761543490066708       11.775152901142770       -0.350533305814373       -0.069651987076775       -0.945508183208072
Mo          1.604542041203644        0.851140798534255       10.063728236706597       -0.488254251044539        2.355616714923331       -0.651719663726145
Mo          4.747024365207511        0.864786568463785       10.042869220125233        1.311533420929157        0.267577139487875       -2.036635229864360
Mo         -0.072908091290848        3.676258114963135        9.853463180258490        1.634710948221300       -0.655403284870425        2.066826422219152
Mo          3.111663826469314        3.689118062916899        9.988291239008744        0.800308152651881       -1.410542534122709        1.287064478325680
