# total energy = -38122.157355287534 eV 

 CRYSTAL
 PRIMVEC
       13.277745107833699        0.000000000000000        0.000000000000000
       -6.638872553916849       11.498859207011680        0.000000000000000
        0.000000000000000        0.000000000000000       20.000015178772852
 PRIMCOORD
48 1
Mo          1.595765879167331        1.013113196119884       10.000007589386426        1.144598817202687       -0.865678993942838        0.000000000000000
Se          1.600479478680612        2.932076652280528        8.311215172444591        0.205085163692311       -0.359133906840221        0.210723338332705
Se          1.600479478680612        2.932076652280528       11.688798678553750        0.205085163692311       -0.359133906840221       -0.210723338332705
Mo         -0.045097861258757        3.872292372209383       10.000007589386426        0.091021720545530       -0.270394298479839        0.000000000000000
Se         -0.031326184032912        5.773129050748812        8.287384275525051        0.035529576232694       -0.119738127468370        0.402216873313486
Se         -0.031326184032912        5.773129050748812       11.712628247698781        0.035529576232694       -0.119738127468370       -0.402216873313486
Mo         -1.675866532079360        6.704678386445784       10.000007589386426        0.192904299915426       -0.150326041218124        0.000000000000000
Se         -1.659852243704802        8.595223484752132        8.285073947876288       -0.150657713674055        0.061898050700060        0.375245731995963
Se         -1.659852243704802        8.595223484752132       11.714938575347544       -0.150657713674055        0.061898050700060       -0.375245731995963
Mo         -3.310984992197288        9.531389492423097       10.000007589386426        0.002643352340640       -0.087768502262667        0.000000000000000
Se         -3.300662873150459       11.424618023015737        8.305435369999151       -0.617456356365900        0.449503595332851        0.499464522944571
Se         -3.300662873150459       11.424618023015737       11.694578480999191       -0.617456356365900        0.449503595332851       -0.499464522944571
Mo          4.995721058008681        0.880038323551131       10.000007589386426       -1.460507061280462        0.930209341235007        0.000000000000000
Se          4.996986427117458        2.784939319868069        8.333245607127507       -0.253365617527314        0.367216430347696       -0.049859626101924
Se          4.996986427117458        2.784939319868069       11.666768243870834       -0.253365617527314        0.367216430347696        0.049859626101924
Mo          3.326282282336024        3.752878971582081       10.000007589386426       -0.296904183684230        0.146021241272659        0.000000000000000
Se          3.316636000515182        5.676510882922639        8.363868070669705       -0.035779487571581        0.237433512562809       -0.287394440174528
Se          3.316636000515182        5.676510882922639       11.636148435877658       -0.035779487571581        0.237433512562809        0.287394440174528
Mo          1.641020417818361        6.658506355607804       10.000007589386426       -0.239275194579733       -0.037898077522643        0.000000000000000
Se          1.625332761973455        8.597330662900745        8.377849536268252        0.110821794833310        0.081764202368595       -0.408643348535185
Se          1.625332761973455        8.597330662900745       11.622168298053619        0.110821794833310        0.081764202368595        0.408643348535185
Mo         -0.047319228015298        9.581497046911039       10.000007589386426        0.068775240507222       -0.155743100887898        0.000000000000000
Se         -0.061166588388258       11.524397621952085        8.368212548868987        0.812228820672639       -0.579416353885370       -0.961852693303828
Se         -0.061166588388258       11.524397621952085       11.631798646580330        0.812228820672639       -0.579416353885370        0.961852693303828
Mo          8.235295681467019        0.994070254086229       10.000007589386426        0.884173718572664       -0.493254791816166        0.000000000000000
Se          8.228646186717015        2.929965490808382        8.344704301155568        0.224946430262658       -0.272866672383895       -0.076259210931435
Se          8.228646186717015        2.929965490808382       11.655308222068262        0.224946430262658       -0.272866672383895        0.076259210931435
Mo          6.574912327957904        3.887826006211037       10.000007589386426        0.148625255717363       -0.277204382464522        0.000000000000000
Se          6.579615305275098        5.806806723440321        8.311241727934805        0.116138067214150       -0.278290674035303        0.175599482360057
Se          6.579615305275098        5.806806723440321       11.688768139740002        0.116138067214150       -0.278290674035303       -0.175599482360057
Mo          4.934033982012196        6.747034393339774       10.000007589386426        0.272124394569730       -0.115574481149498        0.000000000000000
Se          4.947800348139999        8.647885677398820        8.287396225495648       -0.036369041789759       -0.159921402501334        0.347545168385824
Se          4.947800348139999        8.647885677398820       11.712618953277204       -0.036369041789759       -0.159921402501334       -0.347545168385824
Mo          3.303262655642572        9.579436340870306       10.000007589386426        0.110696324943005        0.088521578714932        0.000000000000000
Se          3.319278271791641       11.469988078049205        8.285064653454711       -0.429754686020831        0.320758889468157        0.670041353035938
Se          3.319278271791641       11.469988078049205       11.714947869769119       -0.429754686020831        0.320758889468157       -0.670041353035938
Mo         11.623628850015480        0.913802301585842       10.000007589386426       -0.941861843076280        0.324131664101414        0.000000000000000
Se         11.635228288141684        2.805774757491281        8.301236946996053       -0.148573833631172        0.207199896986909        0.294984340096295
Se         11.635228288141684        2.805774757491281       11.698778231776798       -0.148573833631172        0.207199896986909       -0.294984340096295
Mo          9.974875473446318        3.754769722485436       10.000007589386426       -0.130466060199932        0.269470757811852        0.000000000000000
Se          9.976151464751181        5.659657441057266        8.333216396088272       -0.074519601755599        0.210181606654684        0.030697957014203
Se          9.976151464751181        5.659657441057266       11.666798782684582       -0.074519601755599        0.210181606654684       -0.030697957014203
Mo          8.305452631067791        6.627579831702637       10.000007589386426       -0.275913430990701        0.186712309406757        0.000000000000000
Se          8.295815643668524        8.551195809749066        8.363846826277532        0.066947699563999        0.138464765706916       -0.276992523469416
Se          8.295815643668524        8.551195809749066       11.636168352495320        0.066947699563999        0.138464765706916        0.276992523469416
Mo          6.620200060971703        9.533183315787165       10.000007589386426       -0.112049497141116        0.105253811340567        0.000000000000000
Se          6.604513732901307       11.471998328658533        8.377846880719231        0.445486501959623       -0.103292830083680       -0.677714556737334
Se          6.604513732901307       11.471998328658533       11.622168298053619        0.445486501959623       -0.103292830083680        0.677714556737334
