# total energy = -38121.610560786015 eV 

 CRYSTAL
 PRIMVEC
       13.277745107833699        0.000000000000000        0.000000000000000
       -6.638872553916849       11.498859207011680        0.000000000000000
        0.000000000000000        0.000000000000000       20.000015178772852
 PRIMCOORD
48 1
Mo          1.606750557695042        0.956244613823032       10.000007589386426        0.348877514639028       -0.366925638450286        0.000000000000000
Se          1.624898579708429        2.860432595227679        8.337595396424835        0.193796730221268        0.059129485579545       -0.193267082733503
Se          1.624898579708429        2.860432595227679       11.662418454573508        0.193796730221268        0.059129485579545        0.193267082733503
Mo         -0.017247790895076        3.771916602517692       10.000007589386426       -0.191437999127695        1.298379908391973        0.000000000000000
Se         -0.047433416623225        5.762558637868465        8.335336851981992        0.547279349789116       -0.574400386487885       -0.234265397832591
Se         -0.047433416623225        5.762558637868465       11.664678326790860        0.547279349789116       -0.574400386487885        0.234265397832591
Mo         -1.645047557909567        6.610875100582471       10.000007589386426       -1.045662466261094        2.243536364530500        0.000000000000000
Se         -1.708450118573984        8.650997980852098        8.330672380125609        0.550595560127563       -0.833133184261368       -0.205090305900930
Se         -1.708450118573984        8.650997980852098       11.669338815323711        0.550595560127563       -0.833133184261368        0.205090305900930
Mo         -3.292572743056255        9.490962741893275       10.000007589386426       -1.569934032025847        1.917617268713093        0.000000000000000
Se         -3.357502244408073       11.518908602124506        8.325929569573091        0.193856379841250       -0.537507610750273        0.365107353482579
Se         -3.357502244408073       11.518908602124506       11.674088264748780        0.193856379841250       -0.537507610750273       -0.365107353482579
Mo          4.995933501930407        0.902374146371529       10.000007589386426       -0.544538809705576        1.066636763887042        0.000000000000000
Se          4.955725834194864        2.875064670336511        8.323628536345904       -0.036177237408267       -0.359366848890665        0.133992072650037
Se          4.955725834194864        2.875064670336511       11.676387970201459       -0.036177237408267       -0.359366848890665       -0.133992072650037
Mo          3.305535805605034        3.836897887075430       10.000007589386426       -0.415640608913602       -0.565881546579081        0.000000000000000
Se          3.312177333707972        5.720477480298208        8.324151679503153       -0.377488763395607        0.277218523538225        0.089479057959805
Se          3.312177333707972        5.720477480298208       11.675858188171656       -0.377488763395607        0.277218523538225       -0.089479057959805
Mo          1.609666350520722        6.762286539145142       10.000007589386426        0.479080036647232       -1.990976788204227        0.000000000000000
Se          1.659898715812679        8.573201016716277        8.327850859290196       -0.437821268681587        0.807237021655664       -0.085599004446276
Se          1.659898715812679        8.573201016716277       11.672168302806190       -0.437821268681587        0.807237021655664        0.085599004446276
Mo         -0.073635718819024        9.653257948120839       10.000007589386426        1.429428066607585       -2.181023562790029        0.000000000000000
Se         -0.004819821474144       11.444208008147836        8.332877813588022       -0.155793237421934        0.766774010473822       -0.636162425769970
Se         -0.004819821474144       11.444208008147836       11.667138692959341       -0.155793237421934        0.766774010473822        0.636162425769970
Mo          8.223915326135094        1.009151116979706       10.000007589386426        0.554739408943251       -1.712658860463242        0.000000000000000
Se          8.281421240197121        2.832995462736851        8.336318077345460       -0.172376345997615        0.697779711879428       -0.228932927494602
Se          8.281421240197121        2.832995462736851       11.663698429201903       -0.172376345997615        0.697779711879428        0.228932927494602
Mo          6.585877089867953        3.831013190443638       10.000007589386426        0.888189783504168       -0.253857469781730        0.000000000000000
Se          6.604066272891174        5.735121505377638        8.337595396424835        0.250192617698909       -0.004578108333570       -0.187447902349717
Se          6.604066272891174        5.735121505377638       11.662418454573508        0.250192617698909       -0.004578108333570        0.187447902349717
Mo          4.961873430179791        6.646677212491235       10.000007589386426       -0.016035720468180        1.317257213343058        0.000000000000000
Se          4.931727637686966        8.637252859116469        8.335339507531014        0.545466464140459       -0.614594717269380       -0.243873100416487
Se          4.931727637686966        8.637252859116469       11.664678326790860        0.545466464140459       -0.614594717269380        0.243873100416487
Mo          3.334086940910408        9.485605171742264       10.000007589386426       -1.389754641559203        1.942969128536466        0.000000000000000
Se          3.270700313540121       11.525708135394229        8.330676363449143        0.136346689976716       -0.611858548063166        0.405227122239097
Se          3.270700313540121       11.525708135394229       11.669338815323711        0.136346689976716       -0.611858548063166       -0.405227122239097
Mo         11.644708598148679        0.863253925960319       10.000007589386426       -0.616905882933227        1.844292459130137        0.000000000000000
Se         11.577758223991449        2.897071205078235        8.326544329171584        0.423846802538366       -0.933094891601605       -0.056448338005555
Se         11.577758223991449        2.897071205078235       11.673468194052246        0.423846802538366       -0.933094891601605        0.056448338005555
Mo          9.975106506211194        3.777041812129316       10.000007589386426       -1.143419965876762        0.968774877436407        0.000000000000000
Se          9.934865644112882        5.749804035917880        8.323628536345904        0.036438204495686       -0.401494393002504        0.156048033859009
Se          9.934865644112882        5.749804035917880       11.676387970201459        0.036438204495686       -0.401494393002504       -0.156048033859009
Mo          8.284720759856420        6.711560241735174       10.000007589386426       -0.352154644191970       -0.639480435881434        0.000000000000000
Se          8.291319799175012        8.595215518105068        8.324150351728640       -0.227982133120934        0.281091635070118        0.181705340874356
Se          8.291319799175012        8.595215518105068       11.675868810367742       -0.227982133120934        0.281091635070118       -0.181705340874356
Mo          6.588848649223086        9.636970138197059       10.000007589386426        0.841166085455668       -1.884006250516179        0.000000000000000
Se          6.639053131250315       11.447928432327050        8.327845548192151       -0.098178132280709        0.478471199146733       -0.590243274132850
Se          6.639053131250315       11.447928432327050       11.672168302806190       -0.098178132280709        0.478471199146733        0.590243274132850
