# total energy = -9513.132117320094 eV 

 CRYSTAL
 PRIMVEC
        5.443805113637699        0.000000000000000        0.000000000000000
       -2.721902556818850        4.714471323538089        0.000000000000000
        0.000000000000000        0.000000000000000       19.999957500357748
 PRIMCOORD
12 1
Se          2.664073559477188        4.706924032128541        8.238512031285318        2.011469003772135       -1.059777314699616       -6.048596421779904
Se          0.046981126891716        4.669479363034895        8.065469798138116       -0.624519179904211       -0.524815354326220       -1.598589246666119
Se          4.139106850989538        2.303827034179657        8.037814179399813       -0.737663710370761        1.145689993871656       -1.624701639144254
Se          1.392746366556137        2.331040071562219        8.008924450042249        0.065454145070587        0.086478579230570       -1.202241690270455
Se          2.672507102359235        4.664244600037621       11.727003058498958        0.416155343996373        0.636597199508714        2.733843385255776
Se         -0.089573458100817        4.742499842926676       11.654435503192632        1.604754497689969       -0.356591341788515        3.840232249983072
Se          4.090101172976061        2.358756116537283       11.938573822337929       -0.437622779428890       -0.308609393163849        0.690716117009824
Se          1.305719520487479        2.372356919233196       11.834124622383586        0.975683691826576       -0.521449778785030        1.726835158294762
Mo          1.399664354094548        0.737839191209158        9.859817644298555       -0.755403044554444        2.089348781749874        0.350598611863835
Mo          4.121902249308397        0.755721546626947        9.904334904995839       -2.271264438956751        2.550516706003823        2.015315375819209
Mo          0.035824048311316        3.095452653053089        9.997316185097795       -0.881412609654647       -0.500941622370403       -1.411493842717240
Mo          2.730058465640102        3.154602861895831        9.938937363439655        0.634369337624496       -3.236446969451867        0.528081942351493
