# total energy = -9517.161002889237 eV 

 CRYSTAL
 PRIMVEC
        8.364863528117699        0.000000000000000        0.000000000000000
       -4.182431764058849        7.244180936938131        0.000000000000000
        0.000000000000000        0.000000000000000       19.999945357962428
 PRIMCOORD
12 1
Se          4.164021535919815        7.216852927791770        8.455961074370665        0.024820155452160        0.007183151219997        0.932002172270050
Se         -0.035970586143612        7.235881319345532        8.476906692645072       -0.018640763354608       -0.061077097094023        0.791357367219073
Se          6.234249975357192        3.589577916907977        8.424662264507505        0.045834819415767        0.044650568770793        1.034163716457531
Se          2.075906508800264        3.598527484396710        8.499551214702040       -0.045343224271783        0.009861470579247        0.731552709647843
Se          4.151555379803861        7.218621259941614       11.549835505629682       -0.013673132718142       -0.014373758642492       -0.875956469199369
Se         -0.014435244990473        7.220117734026793       11.545859685994767        0.001455245039201        0.017846549233390       -0.840725912397875
Se          6.261634865575544        3.592960667718748       11.538154810199016       -0.046944765146197       -0.005714536438387       -0.910801617464863
Se          2.063937225577880        3.616550419354393       11.564408770868367        0.034363837538748       -0.006856620972686       -0.888997110257364
Mo          2.062740213607007        1.176538967388575       10.002402671836132        0.017810039552195        0.008919417960231       -0.024610610450932
Mo          6.250942060527551        1.176470375507644       10.020837994565751       -0.007785560959723        0.029369724527894        0.052138652961902
Mo         -0.028059098218718        4.820911759323839        9.978638094552750        0.014424409397390       -0.035072948107319       -0.030977178942219
Mo          4.160439701357075        4.806015610352967       10.019051259716145       -0.006321059945008        0.005264078963356        0.030854537266654
