# total energy = -9530.578155368252 eV 

 CRYSTAL
 PRIMVEC
        6.572434350304899        0.000000000000000        0.000000000000000
       -3.286217175152450        5.691892458222800        0.000000000000000
        0.000000000000000        0.000000000000000       20.000068893967864
 PRIMCOORD
12 1
Se          3.275364114309791        5.672078540386936        8.258111280681179       -0.082499023980262        0.146333630446268        0.814501676882274
Se         -0.019355819161648        5.684200738302638        8.294316192543269        0.087760788949739        0.131853428085361        0.435174831015776
Se          4.915185170223993        2.832125714159579        8.326049220073411       -0.163568256853988       -0.251801100554958        0.020121976547335
Se          1.603242172537580        2.838921611277794        8.259741244400054        0.098572539681792       -0.077974137505900        0.702792593951741
Se          3.267126882338554        5.668781150073388       11.718696453634088        0.138396631442713       -0.078322265029411       -0.421260014492537
Se         -0.020100475973537        5.686854030049856       11.687012062118137       -0.069027980060849       -0.159059825447206       -0.024443488670812
Se          4.911355412728071        2.836550934207639       11.738680597519625       -0.110675498998097        0.068202912687918       -0.738857988322543
Se          1.607663449125030        2.832095480961568       11.676367347444383        0.067548052420277        0.146877933228598       -0.275921915634923
Mo          1.625664689567081        0.933567635176924       10.010600949688918       -0.276919761217456        0.045032891981621       -0.600362112253482
Mo          4.921581463333711        0.923296892017702       10.038197944282413        0.022736532519707        0.219183814173682       -0.766407113888851
Mo         -0.042338964841229        3.790969617360906        9.978571505369576        0.361281550269981       -0.100793202473943        0.430090729354088
Mo          3.263198538327376        3.787291025855040        9.974070702326488       -0.073605317063126       -0.089534336702461        0.424571082622364
