# total energy = -9482.419463773804 eV 

 CRYSTAL
 PRIMVEC
        4.912722826541299        0.000000000000000        0.000000000000000
       -2.456361413270649        4.254540785855428        0.000000000000000
        0.000000000000000        0.000000000000000       20.000043430170312
 PRIMCOORD
12 1
Se          2.425212294188964        4.252306970786200        8.215632355474478        0.652280421576055        0.281439248372768       -7.965240270401405
Se         -0.015029492943238        4.246172945064981        8.174348780473922       -0.601414465247377       -0.268621007837548       -7.749766816856821
Se          3.655838554247341        2.120692748335258        8.230014842821461        0.693859806249101        0.212717743945616       -8.210889489674923
Se          1.214594080386242        2.116971360794153        8.166850000351490       -0.598184129792869       -0.258876522504386       -7.572798478562365
Se          2.432610363493453        4.243912601292489       11.804202469874838       -0.191088586052028       -0.226508119020273        7.995465144222651
Se         -0.024060551315269        4.241831080630884       11.814075077667056        0.233540603527732        0.062165959769114        7.618716087536900
Se          3.663314244572489        2.118158765901328       11.767689148738853       -0.343681055719014       -0.111008457006183        8.529712080487563
Se          1.211282413928871        2.113376721501973       11.825816485222489        0.133150035988663        0.218836457981463        7.766242967493226
Mo          1.202968613089515        0.699235700258146       10.037777463823973        0.375484330475889        0.034100299347019        0.267792083808152
Mo          3.658418225003558        0.699100109108133        9.984917057482672       -0.499842475278074       -0.374277968333852       -0.166701147455164
Mo         -0.020475246196459        2.819668074283597       10.027309434025181        0.759549464474441        0.297036338445740        0.067413326554457
Mo          2.432236996558636        2.828398474018643        9.964580841342205       -0.613653693092088        0.132995769730090       -0.579945487152274
