# total energy = -9160.320029293298 eV 

 CRYSTAL
 PRIMVEC
        4.381587621720000        0.000000000000000        0.000000000000000
       -2.190793810860000        3.794564420100063        0.000000000000000
        0.000000000000000        0.000000000000000       19.999905673320075
 PRIMCOORD
12 1
Se          2.179707956018286        3.788802632377501        8.881849229698000       -0.650942933114232       -5.438905571760113      -93.375796654751426
Se         -0.018319417846411        3.777853483069585        8.881866756048487        0.814817151381055       -1.137598471499098      -96.180028134247806
Se          3.280273820365629        1.883612971146551        8.925624795309078       -5.707081778552110        4.932191305993928     -100.243323737697224
Se          1.077621680766206        1.893661704198204        8.884521998147248        4.159713043498956        1.347919689117790      -93.838098178895450
Se          2.178126641045607        3.780754970392687       11.103619550567272       -0.958063913993288        6.305824609311443       91.639906324188900
Se         -0.019640466514360        3.781163772517794       11.085269899766271        1.254923874683393        1.178896063139817       92.411068952608673
Se          3.264816455553725        1.893114882063013       11.084470698184070        3.647943986660212       -3.835027306418836       96.129269650079266
Se          1.074204480580027        1.889518913101868       11.087533427931652       -3.017430534168736       -4.705329917241523       95.783578762121479
Mo          1.084066996157756        0.615922839096515        9.969148084885536       -1.569516741796408        1.376344532811927        5.391480267218463
Mo          3.267934393305341        0.627096763849426        9.966877984338723        1.322944496075765       -6.574878848225150        9.390639159445508
Mo         -0.013142133912587        2.512910168299605        9.983133674415305        2.540661663185350        3.280366316157026        3.870630930455644
Mo          2.168153709459811        2.520347913287475       10.025521591226585       -1.837968570970388        3.270197598612788      -10.979327083415582
