# total energy = -38122.1229139595 eV 

 CRYSTAL
 PRIMVEC
       13.277745107833699        0.000000000000000        0.000000000000000
       -6.638872553916849       11.498859207011680        0.000000000000000
        0.000000000000000        0.000000000000000       20.000015178772852
 PRIMCOORD
48 1
Mo          1.634851577441262        0.943875066480574       10.000007589386426       -0.034017766898683       -0.019640151599726        0.000000000000000
Se          1.597806668590406        2.924775220245730        8.330514374958828        0.351592343679473       -0.569701179141336       -0.053838924241801
Se          1.672120880184440        2.796059431395879       11.669498148265003       -0.317555293498468        0.589273710697721        0.053830696708011
Mo         -0.024865233263440        3.818589204346238       10.000007589386426       -0.034001568941533       -0.019621639648698        0.000000257110431
Se         -0.061911469888807        5.799490685885905        8.330514374958828        0.351558662213018       -0.569675210987810       -0.053843552229559
Se          0.012402741705227        5.670773569261543       11.669498148265003       -0.317577919216392        0.589299421740817        0.053843552229559
Mo         -1.684584699517163        6.693304669986414       10.000007589386426       -0.033981257217488       -0.019619068544388        0.000000000000000
Se         -1.721629608368019        8.674204823751570        8.330514374958828        0.351559433544311       -0.569680353196429       -0.053843552229559
Se         -1.647315396773985        8.545487707127208       11.669498148265003       -0.317573805449497        0.589296336415645        0.053843552229559
Mo         -3.344301510221865        9.568020135626588       10.000007589386426       -0.033993598518174       -0.019635523611969       -0.000000257110431
Se         -3.381347746847232       11.548917633842724        8.330514374958828        0.351548377795780       -0.569647700171698       -0.053830696708011
Se         -3.307033535253197       11.420197861669340       11.669498148265003       -0.317579461878978        0.589338502526322        0.053838924241801
Mo          4.954287854399686        0.943875066480574       10.000007589386426       -0.033981257217488       -0.019659434882048        0.000002828214740
Se          4.991557157142864        2.796059431395879        8.330514374958828       -0.317576890774668        0.589292993980043       -0.053844323560851
Se          4.917242945548829        2.924775220245730       11.669498148265003        0.351554291335692       -0.569676239429533        0.053844323560851
Mo          3.294569715920474        3.818589204346238       10.000007589386426       -0.034015967125667       -0.019599013930774       -0.000002828214740
Se          3.331839018663652        5.670773569261543        8.330514374958828       -0.317554007946313        0.589285537777545       -0.053829925376718
Se          3.257524807069618        5.799490685885905       11.669498148265003        0.351598771440247       -0.569695779822286        0.053836610247923
Mo          1.634851577441262        6.693304669986414       10.000007589386426       -0.033995398291190       -0.019613155004476       -0.000009770196376
Se          1.672120880184440        8.545487707127208        8.330514374958828       -0.317576376553807        0.589295565084353       -0.053843552229559
Se          1.597806668590406        8.674204823751570       11.669498148265003        0.351556605329570       -0.569677010760826        0.053843552229559
Mo         -0.024865233263440        9.568020135626588       10.000007589386426       -0.033983056990504       -0.019634238059815        0.000009770196376
Se          0.012402741705227       11.420197861669340        8.330514374958828       -0.317571491455618        0.589341330741062       -0.053836610247923
Se         -0.061911469888807       11.548917633842724       11.669498148265003        0.351559176433880       -0.569652585269886        0.053829925376718
Mo          8.273725459132622        0.943875066480574       10.000007589386426       -0.033985885205245       -0.019663291538512       -0.000001542662586
Se          8.236679222507256        2.924775220245730        8.330514374958828        0.351561233317328       -0.569682410079876       -0.053843038008697
Se          8.310993434101290        2.796059431395879       11.669498148265003       -0.317573291228635        0.589291194207026        0.053843038008697
Mo          6.614007320653410        3.818589204346238       10.000007589386426       -0.033986656536538       -0.019622153869560        0.000000000000000
Se          6.576961084028042        5.799490685885905        8.330514374958828        0.351554548446123       -0.569672125662638       -0.053843038008697
Se          6.651275295622077        5.670773569261543       11.669498148265003       -0.317578947658116        0.589301992845127        0.053843038008697
Mo          4.954287854399686        6.693304669986414       10.000007589386426       -0.034021880665578       -0.019601070814221        0.000001542662586
Se          4.917242945548829        8.674204823751570        8.330514374958828        0.351593886342059       -0.569701950472629       -0.053840466904387
Se          4.991557157142864        8.545487707127208       11.669498148265003       -0.317557864602778        0.589281938231512        0.053833524922751
Mo          3.294569715920474        9.568020135626588       10.000007589386426       -0.033993598518174       -0.019626267636455        0.000000000000000
Se          3.257524807069618       11.548917633842724        8.330514374958828        0.351554034225261       -0.569654127932471       -0.053833524922751
Se          3.331839018663652       11.420197861669340       11.669498148265003       -0.317579461878978        0.589340302299339        0.053840466904387
Mo         11.593157752767514        0.943875066480574       10.000007589386426       -0.033970715689819       -0.019655321115153       -0.000003856656464
Se         11.630428383285203        2.796059431395879        8.330514374958828       -0.317567120578292        0.589292222648750       -0.053841238235680
Se         11.556118155014701        2.924775220245730       11.669498148265003        0.351544006918454       -0.569679067644274        0.053840981125249
Mo          9.933443597611834        3.818589204346238       10.000007589386426       -0.033981514327919       -0.019623439421714        0.000007199092067
Se          9.970711572580502        5.670773569261543        8.330514374958828       -0.317576376553807        0.589299935961679       -0.053843295119128
Se          9.896397360986468        5.799490685885905       11.669498148265003        0.351560461986035       -0.569679067644274        0.053843295119128
Mo          8.273725459132622        6.693304669986414       10.000007589386426       -0.033985113873952       -0.019617011660941       -0.000007199092067
Se          8.310993434101290        8.545487707127208        8.330514374958828       -0.317584346977166        0.589285537777545       -0.053840981125249
Se          8.236679222507256        8.674204823751570       11.669498148265003        0.351558405102587       -0.569667240564450        0.053841238235680
Mo          6.614007320653410        9.568020135626588       10.000007589386426       -0.034007482481445       -0.019591814838707        0.000003856656464
Se          6.651275295622077       11.420197861669340        8.330514374958828       -0.317558378823640        0.589322561679603       -0.053817326965601
Se          6.576961084028042       11.548917633842724       11.669498148265003        0.351589258354302       -0.569674953877379        0.053817326965601
