# total energy = -9530.412965458723 eV 

 CRYSTAL
 PRIMVEC
        6.506022605555400        0.000000000000000        0.000000000000000
       -3.253011302777700        5.634378226976116        0.000000000000000
        0.000000000000000        0.000000000000000       19.999994935150113
 PRIMCOORD
12 1
Se          3.230698898251948        5.613673460636196        8.274279525667309       -0.118732825683339       -0.042963410122871        0.456190266310676
Se         -0.009215781020769        5.609482931475958        8.230698933243996       -0.112292466498368        0.215640318214272        0.829925474524783
Se          4.850167635590629        2.808445669708452        8.299012170602328       -0.129977036160257       -0.172194826033362        0.228749350646901
Se          1.598335874711316        2.810237428334022        8.225113512837128        0.094592470210622        0.037227019297853        0.920576184718447
Se          3.210399457120355        5.630166227941278       11.716070230970066        0.315587370259945       -0.008581060633095       -0.365611804148111
Se         -0.022679344200706        5.614135388241190       11.704926064849010       -0.236596103889191        0.024383324829969       -0.563501989540600
Se          4.851848141229644        2.813647885383854       11.757857763563287        0.152726938422374       -0.068741559040767       -0.836300270549861
Se          1.618440785767004        2.796715310950636       11.744243260658903       -0.327910930326009        0.019142128694968       -0.921384282802936
Mo          1.587923636133385        0.935040364052338        9.964952126207971        0.396703911452966       -0.066306209038769        0.362356271871369
Mo          4.859711970752979        0.917684898149758       10.013762259601629       -0.239782730570437        0.239883003638509       -0.405930833488618
Mo         -0.036652328950657        3.745765093479516        9.964292415515768        0.447589922395259       -0.140320074576681        0.681361153979557
Mo          3.231424319772467        3.741229745121183       10.021752956565772       -0.241908776723997       -0.037168141009165       -0.386429521521607
