# total energy = -9524.688032617038 eV 

 CRYSTAL
 PRIMVEC
        5.974940318459000        0.000000000000000        0.000000000000000
       -2.987470159229500        5.174447689293456        0.000000000000000
        0.000000000000000        0.000000000000000       20.000067101485772
 PRIMCOORD
12 1
Se          2.956285750719399        5.170120040020795        8.325969992364788        0.191795125516290       -0.172094810075720       -3.015651072876102
Se         -0.033111326762804        5.167167822009445        8.333075988885531       -0.188740139375693        0.021100281737115       -3.157264670030913
Se          4.453586674716205        2.573884192891736        8.366572699298878        0.058896029308239        0.124669248423640       -4.090108878962338
Se          1.478119573092457        2.581320006118058        8.378085811798515       -0.119501328761461       -0.048682060328154       -3.894141622482955
Se          2.964680541866834        5.160422114389905       11.615512819298493       -0.259399999341808        0.051976673390400        3.585026235990988
Se         -0.018038344821428        5.154301983021707       11.654149770867807       -0.092411916645700        0.217330562187365        2.673683658179398
Se          4.459261673030677        2.571951299698715       11.618112515831054        0.058320101942902       -0.142857497419768        3.544297372623539
Se          1.461269046406339        2.576079983458770       11.653651460845248        0.080307157556378        0.116983960531989        2.816460937144708
Mo          1.456238146658197        0.856101398709442        9.997692569126114        0.605137938508455       -0.290576953088879       -0.097841831837020
Mo          4.452299672571609        0.851139210774962        9.968824047483448       -0.141605626731452       -0.459197429911116        0.776803631274913
Mo         -0.031964735715692        3.442837090732152        9.978758580750949        0.390123684193557        0.236828017497912        0.705712082895226
Mo          2.974715454131685        3.435170644809537        9.992101219976099       -0.582921026169706        0.344519749944786        0.153023900970126
