# total energy = -38122.73473322139 eV 

 CRYSTAL
 PRIMVEC
       26.555490215667398        0.000000000000000        0.000000000000000
       -3.319436276958425        5.749422964633285        0.000000000000000
        0.000000000000000        0.000000000000000       20.000028456517960
 PRIMCOORD
48 1
Mo          1.660926413284025        0.956592490744857       10.000008917160937       -0.960199730343224       -0.618103503320612        0.000000000000000
Se          1.626906174768734        2.865069183819334        8.316396148585667        0.023289577056690       -0.148826573184800        0.088108145141958
Se          1.626906174768734        2.865069183819334       11.683619030187186        0.023289577056690       -0.148826573184800       -0.088108145141958
Mo         -0.010361952282153        3.810216258281239       10.000008917160937       -0.790934163449723       -0.403456659811547        0.000000000000000
Se         -0.044812389738939        5.718411463159430        8.316839625272268        0.204699240935449        0.074992684948555        0.209980803408109
Se         -0.044812389738939        5.718411463159430       11.683180864598626        0.204699240935449        0.074992684948555       -0.209980803408109
Mo          4.968792463155483        0.935502120415574       10.000008917160937       -0.661215009051713       -0.252866051959970        0.000000000000000
Se          4.934342025698698        2.843694669744743        8.316839625272268        0.143563265552737       -0.108483889684644        0.071219589374303
Se          4.934342025698698        2.843694669744743       11.683180864598626        0.143563265552737       -0.108483889684644       -0.071219589374303
Mo          3.296593244274908        3.789651686658225       10.000008917160937       -0.269192050104698        0.158055037883037        0.000000000000000
Se          3.263879535878227        5.698088546497379        8.318143499841858        0.308420416997098        0.139156906987045        0.182681074959827
Se          3.263879535878227        5.698088546497379       11.681879645578059        0.308420416997098        0.139156906987045       -0.182681074959827
Mo          8.275747659712545        0.914937548792561       10.000008917160937       -0.603069485091429       -0.211120573948529        0.000000000000000
Se          8.243036606864885        2.823374408631715        8.318143499841858        0.133449055419862       -0.091816705998041        0.066914018097544
Se          8.243036606864885        2.823374408631715       11.681879645578059        0.133449055419862       -0.091816705998041       -0.066914018097544
Mo          6.603420974478933        3.770903510565965       10.000008917160937       -0.242489846297953        0.163210102023668        0.000000000000000
Se          6.574512667830158        5.680094546327243        8.320222794725744        0.276788120676807        0.124206449647922        0.152967336675317
Se          6.574512667830158        5.680094546327243       11.679789728498085        0.276788120676807        0.124206449647922       -0.152967336675317
Mo         11.582580701014614        0.896189372700300       10.000008917160937       -0.525632708386224       -0.184958816267650        0.000000000000000
Se         11.553669738816815        2.805377752912557        8.320222794725744        0.116302360779529       -0.068001595220480        0.055442521999663
Se         11.553669738816815        2.805377752912557       11.679789728498085        0.116302360779529       -0.068001595220480       -0.055442521999663
Mo          9.910915247487374        3.755153449319052       10.000008917160937       -0.201261674473591        0.132300543124790        0.000000000000000
Se          9.887631393666275        5.665558070983186        8.322950043570893        0.230939931518630        0.102622028969320        0.111427032787776
Se          9.887631393666275        5.665558070983186       11.677070446300000        0.230939931518630        0.102622028969320       -0.111427032787776
Mo         14.890072318474031        0.880439311453388       10.000008917160937       -0.415712599834270       -0.145255566409277        0.000000000000000
Se         14.866783153554890        2.790841277568501        8.322950043570893        0.091656011978694       -0.040390248929882        0.039813807343683
Se         14.866783153554890        2.790841277568501       11.677070446300000        0.091656011978694       -0.040390248929882       -0.039813807343683
Mo         13.219822272575286        3.743389367153512       10.000008917160937       -0.149021977112325        0.093383279853844        0.000000000000000
Se         13.203631390190793        5.655392629328628        8.326152635690903        0.169563300772546        0.073940074844229        0.061561750256372
Se         13.203631390190793        5.655392629328628       11.673870509729014        0.169563300772546        0.073940074844229       -0.061561750256372
Mo         18.198976688012923        0.868672573738826       10.000008917160937       -0.277192555384698       -0.094051766974325        0.000000000000000
Se         18.182785805628427        2.780675835913943        8.326152635690903        0.062032519455449       -0.009915977990609        0.020872481895290
Se         18.182785805628427        2.780675835913943       11.673870509729014        0.062032519455449       -0.009915977990609       -0.020872481895290
Mo         16.530813903645125        3.736349506697338       10.000008917160937       -0.087203887756292        0.049680163021118        0.000000000000000
Se         16.522743690168589        5.650238208677767        8.329628749360134        0.097773440462387        0.040929666614024        0.005904283936431
Se         16.522743690168589        5.650238208677767       11.670389084961741        0.097773440462387        0.040929666614024       -0.005904283936431
Mo         21.509968319082763        0.861632713282652       10.000008917160937       -0.116128297017773       -0.029030338759034        0.000000000000000
Se         21.501898105606223        2.775521415263082        8.329628749360134        0.027025134508023        0.026178726969322       -0.004110424459664
Se         21.501898105606223        2.775521415263082       11.670389084961741        0.027025134508023        0.026178726969322        0.004110424459664
Mo         19.844407972756105        3.734477344637134       10.000008917160937       -0.019982365583326        0.009641641160781        0.000000000000000
Se         19.844968293599656        5.650416130462212        8.333160629558819        0.021044231663167        0.006223100870815       -0.054913902953621
Se         19.844968293599656        5.650416130462212       11.666859860312076        0.021044231663167        0.006223100870815        0.054913902953621
Mo         24.823562388193743        0.859760551222448       10.000008917160937        0.134109829227414        0.072857639929912        0.000000000000000
Se         24.824122709037294        2.775701992596548        8.333160629558819        0.282179726413916        0.246892605317612        0.218341006181015
Se         24.824122709037294        2.775701992596548       11.666859860312076        0.282179726413916        0.246892605317612       -0.218341006181015
Mo         23.160978912320260        3.737889725129847       10.000008917160937        0.171476716599707       -0.005672370327711        0.000000000000000
Se         23.170140556444665        5.655921083583920        8.336527865718164        0.318099339170367        0.264986494785580        0.204282979147734
Se         23.170140556444665        5.655921083583920       11.663489968603709        0.318099339170367        0.264986494785580       -0.204282979147734
