# total energy = -9528.628161142733 eV 

 CRYSTAL
 PRIMVEC
        6.572434350304899        0.000000000000000        0.000000000000000
       -3.286217175152450        5.691892458222800        0.000000000000000
        0.000000000000000        0.000000000000000       20.000068893967864
 PRIMCOORD
12 1
Se          3.259167007096900        5.677730176684763        8.484481036304684        0.235313122838730       -0.029827123984561       -3.532535855959541
Se         -0.037030409616488        5.681329898978425        8.461821911638575       -0.190197698408772       -0.008096664581178       -3.188273730666571
Se          4.895387683474005        2.836899930471640        8.495600937981965        0.225251363233770       -0.124095120831319       -4.196762142378589
Se          1.630828651236115        2.828892076459229        8.464325351882605       -0.090250132142237       -0.020711273655082       -3.178945507121123
Se          3.254063511823888        5.679202401979232       11.521164568209414       -0.135376612320726       -0.077592071405502        2.926259689573252
Se         -0.036143130979197        5.688395265905003       11.528338380302772        0.220276533505237       -0.192853134939667        2.728075884068613
Se          4.913229213761343        2.827529610818411       11.484118384750484        0.041801270974959       -0.172957672682003        3.597854246722584
Se          1.617420227918058        2.838613364106765       11.512302297731463        0.020648538709929        0.184303441779148        3.144294220120569
Mo          1.611451800284546        0.945008928893934       10.008519459730177        0.105987090289648       -0.215710252251492       -0.265028146675395
Mo          4.898123130650601        0.929258089973429        9.962872588680439       -0.121390833318543       -0.197227354701490        0.990081875960009
Mo         -0.028427750295374        3.777363363768904        9.975634284458424        0.425730907776398        0.416669821968712        0.426528721443649
Mo          3.278962522116583        3.770879657282328        9.984223798910840       -0.737793808248824        0.438097405284432        0.548450744912544
