# total energy = -9524.91702903273 eV 

 CRYSTAL
 PRIMVEC
        6.572434350304899        0.000000000000000        0.000000000000000
       -3.286217175152450        5.691892458222800        0.000000000000000
        0.000000000000000        0.000000000000000       20.000068893967864
 PRIMCOORD
12 1
Se          3.270582668319944        5.684136328446006        7.982186684543243       -0.021884982772387       -0.006955094267741        3.423102200342952
Se         -0.019482009901174        5.667522528895304        7.975756872018341       -0.015724359736295        0.067694348255490        3.466806602727833
Se          4.889989085898665        2.838029731936458        7.976518617159541        0.084782678827997       -0.053453001484939        3.472494399681402
Se          1.608908268190978        2.841025447513327        7.968359597157072        0.058567442177479       -0.042413965131922        3.470082446728620
Se          3.258244894557552        5.672925727174690       12.052420351935474        0.031688089283808       -0.001156225608001       -3.427974443009534
Se         -0.029464223192417        5.680123857275144       12.047404927282756        0.037426022771412       -0.024332931185502       -3.446689511278687
Se          4.918163797471552        2.825092552161318       12.019658738429509       -0.022429285554717        0.015703276680956       -3.323271362212071
Se          1.622686062319522        2.822470808098981       12.044536716932283        0.013073808303588        0.058153751494074       -3.408687046921076
Mo          1.612258895222764        0.943533417382291        9.984965169505553        0.071494440424993       -0.077631666411869        0.109488163027951
Mo          4.917935733999596        0.926284720673351       10.017163525387696       -0.091697663868509        0.040900098914464       -0.058892686872636
Mo         -0.014749857168954        3.775535569776084       10.027519710193472       -0.056402572348845        0.037711672460202       -0.121513217883677
Mo          3.270208696805412        3.783541452058190       10.035665585327241       -0.088893617508523       -0.014219492383920       -0.154945801441509
