# total energy = -9518.01678782794 eV 

 CRYSTAL
 PRIMVEC
        6.240481462007200        0.000000000000000        0.000000000000000
       -3.120240731003600        5.404412958134786        0.000000000000000
        0.000000000000000        0.000000000000000       20.000031670846408
 PRIMCOORD
12 1
Se          3.094186096851574        5.386997022470615        7.704834774944891        0.025678904291547       -0.031264371293595        3.360428190362273
Se         -0.016612785700009        5.398640512782428        7.734759755699653       -0.005490850363457        0.069154735503310        3.295023153383998
Se          4.665196726552722        2.695731355502414        7.688435413710883       -0.122187618544070       -0.033913637174147        3.263145573712578
Se          1.532615443458003        2.680168218784314        7.697369286971891        0.100783432277567       -0.016589536336455        3.248584124455489
Se          3.083479302807208        5.393256849425154       12.339606658177743        0.073059214507780        0.016435784298745       -3.008813220964876
Se         -0.015723517091673        5.399056752895944       12.333176466079291       -0.048049311557576       -0.053647376970741       -3.236838034417348
Se          4.664310578185117        2.682717455461544       12.267215201074020        0.031810988069804        0.040711122747713       -3.304247504315341
Se          1.545219967914965        2.694565633565311       12.331504641095618       -0.065952425085776       -0.016991657050468       -3.166996814063390
Mo          1.551205213685176        0.879349987100312        9.994156647378524        0.063466681439311       -0.008465618049597       -0.317687448259979
Mo          4.669089538888723        0.880313517438046        9.986046517670500        0.001639336107764        0.026528140044988       -0.179423742910069
Mo         -0.031011448577299        3.594926073651909       10.026895461224507       -0.043333906253876        0.042600113083933        0.438273525929635
Mo          3.087290364836055        3.586024650894501        9.967409943832362       -0.011424701999448       -0.034557441693256       -0.391447802912970
