# total energy = -38122.1956594093 eV 

 CRYSTAL
 PRIMVEC
       13.277745107833699        0.000000000000000        0.000000000000000
       -6.638872553916849       11.498859207011680        0.000000000000000
        0.000000000000000        0.000000000000000       20.000015178772852
 PRIMCOORD
48 1
Mo          1.634851577441262        0.943875066480574       10.000007589386426       -0.006771517420040       -0.003909621213089        0.000000000000000
Se          1.644865652801590        2.843265798577760        8.330514374958828       -0.054599714006995        0.092001054177035       -0.009857099701921
Se          1.625061895973255        2.877567525289338       11.669498148265003        0.052403219595353       -0.093337514197134        0.009859413695799
Mo         -0.024865233263440        3.818589204346238       10.000007589386426       -0.006772031640902       -0.003901907900160        0.000009770196376
Se         -0.014852485677623        5.717981264217936        8.330514374958828       -0.054629281706555        0.092023937005390       -0.009866098567004
Se         -0.034656242505957        5.752281663155002       11.669498148265003        0.052375965889672       -0.093318488025244        0.009866869898297
Mo         -1.684584699517163        6.693304669986414       10.000007589386426       -0.006750948585563       -0.003897537022834        0.000000000000000
Se         -1.674570624156835        8.592696729858110        8.330514374958828       -0.054628253264831        0.092018280575909       -0.009866869898297
Se         -1.694374380985169        8.626997128795178       11.669498148265003        0.052380336766998       -0.093322087571277        0.009866098567004
Mo         -3.344301510221865        9.568020135626588       10.000007589386426       -0.006765089659266       -0.003913734979984       -0.000009770196376
Se         -3.334288762636048       11.467408212174753        8.330514374958828       -0.054630824369140        0.092051190711071       -0.009859413695799
Se         -3.354092519464381       11.501708611111820       11.669498148265003        0.052375194558379       -0.093285320779651        0.009857099701921
Mo          4.954287854399686        0.943875066480574       10.000007589386426       -0.044174657363096       -0.025542121542279        0.000004627987757
Se          4.991218574642614        2.796646307729645        8.330514374958828       -0.260693264809508        0.510506387512328       -0.055089252267532
Se          4.917582855823590        2.924187016137453       11.669498148265003        0.311764652372519       -0.481020191959212        0.055089252267532
Mo          3.294569715920474        3.818589204346238       10.000007589386426       -0.044207310387828       -0.025485300137038       -0.000004627987757
Se          3.331500436163402        5.671360445595309        8.330514374958828       -0.260662668668224        0.510490960886471       -0.055074596972967
Se          3.257864717344378        5.798902481777628       11.669498148265003        0.311794477182509       -0.481030476376450        0.055080253402448
Mo          1.634851577441262        6.693304669986414       10.000007589386426       -0.044186998663782       -0.025497898548155       -0.000001542662586
Se          1.671782297684190        8.546075911235485        8.330514374958828       -0.260687608380027        0.510508187285345       -0.055087709604946
Se          1.598146578865166        8.673616619643292       11.669498148265003        0.311769280360276       -0.481016078192317        0.055087709604946
Mo         -0.024865233263440        9.568020135626588       10.000007589386426       -0.044175171583958       -0.025517953161770        0.000001542662586
Se          0.012064159204978       11.420788721326639        8.330514374958828       -0.260687351269596        0.510537240764043       -0.055080253402448
Se         -0.061572887388557       11.548328101959935       11.669498148265003        0.311766709255966       -0.480985996271895        0.055074596972967
Mo          8.273725459132622        0.943875066480574       10.000007589386426       -0.092790383200064       -0.053600325761876       -0.000001542662586
Se          8.323507708865423        2.774383512507340        8.330514374958828       -0.338101502256877        0.700020686395624       -0.095593144007895
Se          8.224166275517632        2.946448483585247       11.669498148265003        0.437184149033683       -0.642818500606511        0.095591601345310
Mo          6.614007320653410        3.818589204346238       10.000007589386426       -0.092784212549721       -0.053568958289300        0.000000000000000
Se          6.663789570386210        5.649098978147515        8.330514374958828       -0.338105101802911        0.700021714837348       -0.095591601345310
Se          6.564448137038420        5.821163949225422       11.669498148265003        0.437184920364975       -0.642814901060478        0.095593144007895
Mo          4.954287854399686        6.693304669986414       10.000007589386426       -0.092814294470143       -0.053558673872061        0.000001542662586
Se          5.004071431906998        8.523814443787691        8.330514374958828       -0.338109729790668        0.700021200616486       -0.095586716247122
Se          4.904729998559208        8.695879414865598       11.669498148265003        0.437199832769971       -0.642825185477716        0.095588516020138
Mo          3.294569715920474        9.568020135626588       10.000007589386426       -0.092773671022052       -0.053562787638957        0.000000000000000
Se          3.344353293427786       11.398528581653355        8.330514374958828       -0.338103044919463        0.700038941236222       -0.095588516020138
Se          3.245011860079995       11.570598863829304       11.669498148265003        0.437181320818942       -0.642822100152545        0.095586716247122
Mo         11.593157752767514        0.943875066480574       10.000007589386426       -0.076956751530614       -0.044473419683865       -0.000008227533791
Se         11.636828256427179        2.784984464201435        8.330514374958828       -0.306317767892755        0.614575433987059       -0.074074029378756
Se         11.549718281872725        2.935850187440174       11.669498148265003        0.379110873104497       -0.572560761354408        0.074074029378756
Mo          9.933443597611834        3.818589204346238       10.000007589386426       -0.076994289653533       -0.044445137536460       -0.000013112631979
Se          9.977106134624435        5.659698602067099        8.330514374958828       -0.306300798604312        0.614577747980937       -0.074072743826601
Se          9.890002798942534        5.810564325305838       11.669498148265003        0.379089532938728       -0.572553048041480        0.074072743826601
Mo          8.273725459132622        6.693304669986414       10.000007589386426       -0.076987861892759       -0.044456450395422        0.000013112631979
Se          8.317387996145222        8.534412739932764        8.330514374958828       -0.306296684837417        0.614600116588430       -0.074074029378756
Se          8.230284660463321        8.685279790946012       11.669498148265003        0.379079248521490       -0.572566674894320        0.074074029378756
Mo          6.614007320653410        9.568020135626588       10.000007589386426       -0.076993518322240       -0.044409913407419        0.000008227533791
Se          6.657669857666010       11.409128205572939        8.330514374958828       -0.306306969254655        0.614592146165071       -0.074049346777384
Se          6.570566521984110       11.559997912135209       11.669498148265003        0.379099046024673       -0.572565646452596        0.074049346777384
