# total energy = -38122.026334183895 eV 

 CRYSTAL
 PRIMVEC
       13.277745107833699        0.000000000000000        0.000000000000000
       -6.638872553916849       11.498859207011680        0.000000000000000
        0.000000000000000        0.000000000000000       20.000015178772852
 PRIMCOORD
48 1
Mo          1.626746841827440        0.937480504436641       10.000007589386426       -0.312541897205293       -0.548753363889777        0.000000000000000
Se          1.616467211564955        2.815390500498374        8.334407409824443        0.284864216423509        0.358380573277525       -0.028636702689244
Se          1.616467211564955        2.815390500498374       11.665607768948409        0.284864216423509        0.358380573277525        0.028636702689244
Mo         -0.022692994163799        3.816975958315637       10.000007589386426        0.843924623269376        0.271334808436270        0.000000000000000
Se          0.034034844034910        5.737778382173715        8.325171410327433       -0.570455026924894       -0.109415143665560       -0.012387066342510
Se          0.034034844034910        5.737778382173715       11.674838457347374       -0.570455026924894       -0.109415143665560        0.012387066342510
Mo         -1.674169636254578        6.697985075136925       10.000007589386426        0.852524967184792        0.544403055398032        0.000000000000000
Se         -1.603536015604436        8.657684653288403        8.320946431834122       -1.016279371990791       -0.547819538804551       -0.037945128731508
Se         -1.603536015604436        8.657684653288403       11.679068746938730       -1.016279371990791       -0.547819538804551        0.037945128731508
Mo         -3.335414715421192        9.574604569425563       10.000007589386426        0.218062812694722        0.348642772815567        0.000000000000000
Se         -3.317018399574288       11.532718784811166        8.325694553484682       -0.305857797331778       -0.376611759715623        0.098510576067932
Se         -3.317018399574288       11.532718784811166       11.674317969739146       -0.305857797331778       -0.376611759715623       -0.098510576067932
Mo          4.965083988946866        0.950487383544275       10.000007589386426       -0.192959064437220        0.656419385293556        0.000000000000000
Se          5.009812728891625        2.914990849875767        8.322871704874757       -0.714061744140462       -0.505688652257109       -0.027582549922331
Se          5.009812728891625        2.914990849875767       11.677148784996136       -0.714061744140462       -0.505688652257109        0.027582549922331
Mo          3.297964835344547        3.823168698633930       10.000007589386426       -0.093749919328385       -0.070639548242070        0.000000000000000
Se          3.271681538903590        5.759365340170032        8.331338922930023        0.247894307556610       -0.200077166718186       -0.019574331329402
Se          3.271681538903590        5.759365340170032       11.668678911391851        0.247894307556610       -0.200077166718186        0.019574331329402
Mo          1.627661678465369        6.691554663181202       10.000007589386426        0.159064967655825        0.029735592671142        0.000000000000000
Se          1.555122701392252        8.581010986388707        8.339033376220012        0.963972825917476        0.362893375561632       -0.157859633955512
Se          1.555122701392252        8.581010986388707       11.660977819229307        0.963972825917476        0.362893375561632        0.157859633955512
Mo         -0.035895056124518        9.561583084798311       10.000007589386426        0.239147667805980        0.160007277385272        0.000000000000000
Se         -0.086552309259925       11.429698088293994        8.338737282504107        0.640561842354027        0.554436275745156       -0.216353799660170
Se         -0.086552309259925       11.429698088293994       11.661277896268743        0.640561842354027        0.554436275745156        0.216353799660170
Mo          8.262945257879570        0.938700729212051       10.000007589386426        0.055909434542275       -0.855343668839343        0.000000000000000
Se          8.195385435221892        2.809962558298292        8.339993357191307        0.880793230626479        0.401859232704028       -0.138330554061958
Se          8.195385435221892        2.809962558298292       11.660017838258010        0.880793230626479        0.401859232704028        0.138330554061958
Mo          6.605897273941544        3.812194642302306       10.000007589386426        0.282075596689380        0.140711396652594        0.000000000000000
Se          6.595571171571182        5.690086049520888        8.334412720922487        0.279919468615398        0.497624897811094       -0.060158184413793
Se          6.595571171571182        5.690086049520888       11.665598474526833        0.279919468615398        0.497624897811094        0.060158184413793
Mo          4.956454782401285        6.691686112857769       10.000007589386426       -0.038427210789547        0.045129565503660        0.000000000000000
Se          5.013152081786245        8.612459325676610        8.325176721425477       -0.690646697193466       -0.156078372889862        0.016134193763236
Se          5.013152081786245        8.612459325676610       11.674838457347374       -0.690646697193466       -0.156078372889862       -0.016134193763236
Mo          3.304980795859526        9.572696557453568       10.000007589386426       -0.089338418554073       -0.019914488429555        0.000000000000000
Se          3.375629022029288       11.532377546761895        8.320946431834122       -0.928364316782479       -0.452294271950428        0.094149468938088
Se          3.375629022029288       11.532377546761895       11.679068746938730       -0.928364316782479       -0.452294271950428       -0.094149468938088
Mo         11.601227966244055        0.946315516031394       10.000007589386426        0.148310038329013        0.999629928923923        0.000000000000000
Se         11.675118617769149        2.894118234566253        8.321574469177722       -0.865041874294934       -0.210634378123594        0.029336043061439
Se         11.675118617769149        2.894118234566253       11.678438054046110       -0.865041874294934       -0.210634378123594       -0.029336043061439
Mo          9.944238404384503        3.825201521409940       10.000007589386426       -0.146900558946522       -0.003136490147210        0.000000000000000
Se          9.989005649790075        5.789708971064964        8.322867721551225       -0.499208183844910       -0.463904864791456        0.108195926001976
Se          9.989005649790075        5.789708971064964       11.677148784996136       -0.499208183844910       -0.463904864791456       -0.108195926001976
Mo          8.277124561880226        6.697886819823127       10.000007589386426        0.051215626514776       -0.054487613859099        0.000000000000000
Se          8.250886409772637        8.634111344623955        8.331332284057469        0.371171817217494       -0.184862142745611        0.014634725729911
Se          8.250886409772637        8.634111344623955       11.668678911391851        0.371171817217494       -0.184862142745611       -0.014634725729911
Mo          6.606822732775560        9.566274112144908       10.000007589386426        0.191078044524359       -0.003428053375912        0.000000000000000
Se          6.534291722349508       11.455758318617141        8.339030720670991        0.837038434597130        0.212036658414018       -0.231869385726530
Se          6.534291722349508       11.455758318617141       11.660988441425394        0.837038434597130        0.212036658414018        0.231869385726530
