# total energy = -9526.906392434055 eV 

 CRYSTAL
 PRIMVEC
        6.605613763817199        0.000000000000000        0.000000000000000
       -3.302806881908599        5.720626659809790        0.000000000000000
        0.000000000000000        0.000000000000000       20.000021566736013
 PRIMCOORD
12 1
Se          3.220387317854699        5.763491808645952        8.323546304355160        0.026882438218843       -0.636272211923988       -3.241657312335153
Se         -0.060378612608171        5.759570716315751        8.331792092016533        0.664851836097559       -1.576893240060483       -1.136763376819359
Se          4.915915598189922        2.797727121176856        8.595159894464054        1.694743662744787        1.949924994135500       -5.396409588400716
Se          1.569978682333231        2.866077388475202        8.609041591788715       -1.231091537506959        0.655976384021022       -6.963799255601840
Se          3.371924060964924        5.651065583508536       11.488204040568663       -0.981489502467952        0.548502681219596        1.522402283765782
Se         -0.045879290396592        5.654049339245653       11.735800940155070        0.267048263331402        1.160285381705631       -0.577309848124563
Se          4.949858544515297        2.901035617636075       11.531220457960016       -1.847359786571420       -1.418042702504073        2.694227038723066
Se          1.668998814336980        2.809232779230673       11.476044426752228        1.836920074632957       -1.419664040881670        3.961372143521003
Mo          1.580186997843834        0.916254116197062        9.824588801449194        1.579120587723839       -1.347911461583999        4.332096588588638
Mo          4.948047945782634        0.932818353271210        9.903770954197448       -1.314357007681896       -1.982557192921771        4.482571753856716
Mo          0.041228277745489        3.743191261437517       10.192245373438485       -2.198004678312827        3.366563359465701       -3.467695690598072
Mo          3.233202208556505        3.826968279119881        9.856250829341922        1.502735649791667        0.700087792218103        3.790965263424498
