# total energy = -9526.586676489029 eV 

 CRYSTAL
 PRIMVEC
        5.974940318459000        0.000000000000000        0.000000000000000
       -2.987470159229500        5.174447689293456        0.000000000000000
        0.000000000000000        0.000000000000000       20.000067101485772
 PRIMCOORD
12 1
Se          2.958966706440291        5.162824040397925        8.230252643451138        0.048617011389122        0.060345103697096       -0.239578327777828
Se         -0.032476190606952        5.171233171402124        8.254044258305210        0.007300650686943       -0.194692502962713       -0.429245607367542
Se          4.452634866723474        2.578487884407109        8.247727551400535        0.220663998924685       -0.021210325001564       -0.443339886971587
Se          1.481490036926100        2.567037508780814        8.193414746411712       -0.149259804260958        0.108236806560497        0.210966821910818
Se          2.972352365235735        5.164995333709653       11.787572578155125       -0.239671658864265       -0.078778893154786        0.652317445478113
Se         -0.032132631538641        5.171836640374289       11.732756085697455        0.172624714673917       -0.221025496190607        1.528835700969117
Se          4.446447218529678        2.582514994181750       11.786985839015852        0.197663156881957       -0.083717727422985        0.582747219518381
Se          1.484957892286934        2.565239649238990       11.795754661427223       -0.093451414118047        0.282868268148011        0.622822508170344
Mo          1.463102755590074        0.857751079731369       10.036278733702723       -0.201795949949114        0.155339437511300       -1.151567795433699
Mo          4.453338117198957        0.848435550280859       10.019590127899233        0.391366041795927        0.227262223914262       -0.402162365902123
Mo         -0.011716260470466        3.430758151384355       10.030187282048052       -0.012750106271017       -0.227244740404957       -0.783981897396722
Mo          2.968882717392805        3.439219861863357       10.009659179595923       -0.341306383778721       -0.007382411803987       -0.147813558086840
