# total energy = -9529.426046625147 eV 

 CRYSTAL
 PRIMVEC
        6.771563749103600        0.000000000000000        0.000000000000000
       -3.385781874551800        5.864343495817446        0.000000000000000
        0.000000000000000        0.000000000000000       19.999962507379962
 PRIMCOORD
12 1
Se          3.347434509040626        5.900994584609468        8.237693299644143        0.397597627310963       -0.425239055521983        1.625026883839412
Se         -0.014496563674081        5.834187013817187        8.180620528897572        0.255993029021235       -0.067234377694513        2.147575295495909
Se          5.021470704213522        2.944777013827679        8.411641906387491        1.041511932574201        0.032709846136419        0.171834614319595
Se          1.745602143811672        2.860590901829698        8.340617005692268       -0.426075949974739        0.759488015081443        0.807308498355470
Se          3.343032992603709        5.887085115512435       11.785178762211787        0.384068476434155       -0.063637659875895       -1.342985739947779
Se         -0.042142149836171        5.858061516127401       11.629507283183646        0.562319538668642        0.872091585201266        1.038887863515883
Se          4.956345867012893        2.968809293573248       11.681588057134375        1.349455666832310       -0.885667015955646        0.939903175813271
Se          1.723941942847415        2.893534559469087       11.600509415740857       -0.022560668984935       -0.163098516096634        1.480554732913251
Mo          1.723435429878982        0.969595158448273        9.993332932401112       -0.902328286102337       -0.905839386147447       -0.944666917877990
Mo          5.104175198063199        0.967835906186256        9.996155997328112       -0.761435883706352       -0.149267260463455       -0.211243215624094
Mo          0.008548422076868        3.938500608226757       10.188500234152276       -0.540668526388423       -0.953451352861970       -4.119718230411881
Mo          3.419732463720681        3.867488573502659       10.059296766350254       -1.337877469905582        1.949145178198416       -1.592476960391046
