# total energy = -38122.13677449229 eV 

 CRYSTAL
 PRIMVEC
       13.277745107833699        0.000000000000000        0.000000000000000
       -6.638872553916849       11.498859207011680        0.000000000000000
        0.000000000000000        0.000000000000000       20.000015178772852
 PRIMCOORD
48 1
Mo          1.593977366901306        0.881759119317107       10.000007589386426        0.468723114267537        0.343731192253050        0.000000000000000
Se          1.614288333592759        2.805206470000666        8.365973921043807       -0.109533928684661        0.305921303608223       -0.301917065756543
Se          1.614288333592759        2.805206470000666       11.634038602180024       -0.109533928684661        0.305921303608223        0.301917065756543
Mo         -0.083179762002535        3.794701213122735       10.000007589386426        1.729370010033539        0.566558004122921        0.000000000000000
Se         -0.012543485803370        5.730183511972034        8.378218657582250       -0.200345847118533        0.309480997524784       -0.398804503673862
Se         -0.012543485803370        5.730183511972034       11.621797848965111       -0.200345847118533        0.309480997524784        0.398804503673862
Mo         -1.728726563128156        6.720593091732033       10.000007589386426        0.992986452498498        0.108124449302170        0.000000000000000
Se         -1.645992933361245        8.657842658455186        8.364606313297701       -0.262448814832063        0.028902554874850       -0.234459516207962
Se         -1.645992933361245        8.657842658455186       11.635408865475151       -0.262448814832063        0.028902554874850        0.234459516207962
Mo         -3.350345539794951        9.631692234516693       10.000007589386426        0.000941281287723       -0.321437918116307        0.000000000000000
Se         -3.300301718483526       11.559488046723070        8.332512675597554       -0.876482002920239       -0.720576151129548       -0.552448812113881
Se         -3.300301718483526       11.559488046723070       11.667498519851764       -0.876482002920239       -0.720576151129548        0.552448812113881
Mo          4.895974653435102        0.919987075257071       10.000007589386426        1.978152891239526        0.805815200972488        0.000000000000000
Se          4.966610929634267        2.855468046331859        8.378218657582250       -0.333458859205138        0.371605048293652       -0.373499180838491
Se          4.966610929634267        2.855468046331859       11.621797848965111       -0.333458859205138        0.371605048293652        0.373499180838491
Mo          3.250427852309481        3.845877626091858       10.000007589386426        0.606542789903189       -0.295413200295127        0.000000000000000
Se          3.333161482076393        5.783128520589521        8.364606313297701       -0.356459187027004       -0.049917475948889       -0.280372240084308
Se          3.333161482076393        5.783128520589521       11.635408865475151       -0.356459187027004       -0.049917475948889        0.280372240084308
Mo          1.628808875642686        6.756976768876520       10.000007589386426        0.577791673072171       -0.179888598569234        0.000000000000000
Se          1.678852696954112        8.684771253308384        8.332512675597554       -0.162575810590504       -0.259260388377800       -0.014325421881473
Se          1.678852696954112        8.684771253308384       11.667498519851764       -0.162575810590504       -0.259260388377800        0.014325421881473
Mo          0.010466846468505        9.633561741027878       10.000007589386426        0.153033671166503        0.111234199964561        0.000000000000000
Se          0.000754175922125       11.545798691516893        8.299335573896611       -0.432251228305396       -0.242980413000214        0.183749368800442
Se          0.000754175922125       11.545798691516893       11.700678277101730       -0.432251228305396       -0.242980413000214       -0.183749368800442
Mo          8.229582267747118        0.971163488226194       10.000007589386426        1.140332840932295        0.016706007361678        0.000000000000000
Se          8.312314569739518        2.908414382723857        8.364606313297701       -0.318430497405436        0.046873288446391       -0.237564895993026
Se          8.312314569739518        2.908414382723857       11.635408865475151       -0.318430497405436        0.046873288446391        0.237564895993026
Mo          6.607963291080323        3.882262631010855       10.000007589386426        0.547491465894654       -0.142475431319370        0.000000000000000
Se          6.658007112391748        5.810055787668208        8.332512675597554       -0.187461272092127       -0.254112523329236       -0.016935864086951
Se          6.658007112391748        5.810055787668208       11.667498519851764       -0.187461272092127       -0.254112523329236        0.016935864086951
Mo          4.989619934131632        6.758846275387702       10.000007589386426        0.075312530324662        0.089972709987237        0.000000000000000
Se          4.979908591359762        8.671084553651228        8.299335573896611        0.098360423576255       -0.318847016303582        0.240153740922304
Se          4.979908591359762        8.671084553651228       11.700678277101730        0.098360423576255       -0.318847016303582       -0.240153740922304
Mo          3.352126085413912        9.599903984954031       10.000007589386426       -0.368118630849914        0.343261194385265        0.000000000000000
Se          3.287982626572477       11.498917629090153        8.283059713943429        0.057472923072908        0.351268384536471        0.758849866991815
Se          3.287982626572477       11.498917629090153       11.716958120378445        0.057472923072908        0.351268384536471       -0.758849866991815
Mo         11.587117706517960        1.007547165370680       10.000007589386426       -0.120918521456880       -0.681725736570650        0.000000000000000
Se         11.637158872280363        2.935341649802544        8.332512675597554       -0.741395154055199       -0.546586951398557       -0.555129188356578
Se         11.637158872280363        2.935341649802544       11.667498519851764       -0.741395154055199       -0.546586951398557        0.555129188356578
Mo          9.968775677343778        3.884132137522038       10.000007589386426        0.101344447237909        0.064546545249318        0.000000000000000
Se          9.959063006797399        5.796370415785564        8.299335573896611       -0.122785657406469       -0.224259431191148       -0.006681785879637
Se          9.959063006797399        5.796370415785564       11.700678277101730       -0.122785657406469       -0.224259431191148        0.006681785879637
Mo          8.331280500851548        6.725188519313854       10.000007589386426       -0.390205702421031        0.340405725939088        0.000000000000000
Se          8.267137042010114        8.624203491224488        8.283059713943429        0.529831321723705        0.103669496865027        0.432828441222888
Se          8.267137042010114        8.624203491224488       11.716958120378445        0.529831321723705        0.103669496865027       -0.432828441222888
Mo          6.662587934453951        9.548962588073316       10.000007589386426       -0.846315750277249        0.420209461271658        0.000000000000000
Se          6.578842540509823       11.444258463579246        8.292508157362162        0.094731309843337        0.304007630670632        0.490338131087422
Se          6.578842540509823       11.444258463579246       11.707508349185199        0.094731309843337        0.304007630670632       -0.490338131087422
