# total energy = -9526.220946481313 eV 

 CRYSTAL
 PRIMVEC
        7.302698953924899        0.000000000000000        0.000000000000000
       -3.651349476962450        6.324319861572811        0.000000000000000
        0.000000000000000        0.000000000000000       20.000054981792154
 PRIMCOORD
12 1
Se          3.666807830108118        6.296259971112250        8.682252543580747       -0.094084677109487        0.568539811324716       -3.352497619119491
Se          0.053178984052377        6.283220271860121        8.559978343105916       -0.863695386968027        1.120644866792411       -3.171380032690297
Se          5.501057397701041        3.130561152412772        8.342624462790772       -0.532530209917431        0.280175550604628       -0.461426834457919
Se          1.744008656079483        3.199917805457779        8.594684419884443        1.223392365652037       -0.945298123985982       -3.287457678953172
Se          3.654995714550144        6.329539100515182       11.701521294205600       -0.286938583380447       -0.014202780205908       -0.868227729644887
Se         -0.112119067309504        6.352353462317137       11.520252240231486        0.844166049964042       -0.330503631911751        0.390395964139937
Se          5.484690588805504        3.158667780146638       11.629612347876197       -0.099590182767509        0.092645115806575       -1.506810078790997
Se          1.770295451234031        3.198964072974396       11.453972214255767        0.054915959837068       -0.008329863742053        0.975577762329023
Mo          1.816539792359760        1.018451192321961       10.028801585314332       -0.224076882785171        0.621189856933785        1.751528558304461
Mo          5.427503883567215        1.079418504808698        9.886326658993154        0.706025500510559        0.117276552202415        3.385184068206694
Mo          0.005790310000567        4.251131096096732        9.818416670610919       -1.488307640848243       -0.575221082983491        3.586388407054183
Mo          3.616276074426539        4.247417673678662        9.954741994142998        0.760723430702178       -0.926916270835346        2.558724956512035
