# total energy = -38121.23057622449 eV 

 CRYSTAL
 PRIMVEC
       13.277745107833699        0.000000000000000        0.000000000000000
       -6.638872553916849       11.498859207011680        0.000000000000000
        0.000000000000000        0.000000000000000       20.000015178772852
 PRIMCOORD
48 1
Mo          1.681100619200868        0.988068713297488       10.000007589386426       -1.073695473658457       -1.370332776715357        0.000000000000000
Se          1.633166631587077        2.864495585230676        8.376434128639758        0.012939082437768       -0.085388945224187       -1.379031851036260
Se          1.633166631587077        2.864495585230676       11.623578394584072        0.012939082437768       -0.085388945224187        1.379031851036260
Mo          0.057353219993288        3.869735078501614       10.000007589386426       -1.977197725988531       -1.183545391062761        0.000000000000000
Se         -0.023394059105492        5.733888002857120        8.382498074830506       -0.070645461781982       -0.007182894109566       -1.611044190162400
Se         -0.023394059105492        5.733888002857120       11.617518431716856       -0.070645461781982       -0.007182894109566        1.611044190162400
Mo         -1.607418428273966        6.725881617608484       10.000007589386426       -1.947210422205485       -0.887406625131481        0.000000000000000
Se         -1.680634570347583        8.603900491180100        8.362625273727611       -0.077931714284792        0.053954366825300       -0.908532103690830
Se         -1.680634570347583        8.603900491180100       11.637388577270729       -0.077931714284792        0.053954366825300        0.908532103690830
Mo         -3.310690226255895        9.565774868928855       10.000007589386426       -1.125656977533432       -0.158591627352439        0.000000000000000
Se         -3.339789732434223       11.476877899985661        8.326731545377605        0.005465653541224        0.008591345050333       -0.097701449541719
Se         -3.339789732434223       11.476877899985661       11.673288944493290        0.005465653541224        0.008591345050333        0.097701449541719
Mo          4.936435926102204        0.912150550094427       10.000007589386426        0.544382486563556        0.650720789701888        0.000000000000000
Se          4.957528951980509        2.854298276987859        8.296930974257583       -0.056711361976421        0.050819676451107        0.750846276386643
Se          4.957528951980509        2.854298276987859       11.703088187838802       -0.056711361976421        0.050819676451107       -0.750846276386643
Mo          3.225927757036506        3.767641168592970       10.000007589386426        2.073279894036101        1.242226476050722        0.000000000000000
Se          3.294917592842299        5.733614481307899        8.278193420361408       -0.032094323764715       -0.002674976923647        1.070720191751456
Se          3.294917592842299        5.733614481307899       11.721817775087912       -0.032094323764715       -0.002674976923647       -1.070720191751456
Mo          1.549669531476465        6.648553357874971       10.000007589386426        2.403544156136634        1.378447439026701        0.000000000000000
Se          1.632186733998119        8.613687517099084        8.285561241121744        0.017411261273785       -0.038393786433523        0.946214208451472
Se          1.632186733998119        8.613687517099084       11.714457920974640        0.017411261273785       -0.038393786433523       -0.946214208451472
Mo         -0.084087959767911        9.551793403330304       10.000007589386426        1.552730515980273        0.734987962115821        0.000000000000000
Se         -0.029156600482292       11.491848557594743        8.315359156692745       -0.085718560796670       -0.176384183395329        0.242221165897606
Se         -0.029156600482292       11.491848557594743       11.684658677629129       -0.085718560796670       -0.176384183395329       -0.242221165897606
Mo          8.260875257417259        0.959035595844699       10.000007589386426       -0.067951201576013       -0.334765237304816        0.000000000000000
Se          8.269779313286573        2.867785810468396        8.347427566677185        0.060833099295047       -0.093276321914567       -0.476659084829368
Se          8.269779313286573        2.867785810468396       11.652587612095667        0.060833099295047       -0.093276321914567        0.476659084829368
Mo          6.660211218079649        3.862765590094512       10.000007589386426       -1.296767054658597       -1.058007366492927        0.000000000000000
Se          6.612318391475693        5.739215034194383        8.376416867571118       -0.031348189294086       -0.098740689903636       -1.373063289492090
Se          6.612318391475693        5.739215034194383       11.623598311201732       -0.031348189294086       -0.098740689903636        1.373063289492090
Mo          5.036493029911306        6.744454527465320       10.000007589386426       -2.112911152973807       -1.306837298907779        0.000000000000000
Se          4.955757700783123        8.608607451820829        8.382504713703060       -0.137883181912098       -0.019075022872489       -1.587666681338324
Se          4.955757700783123        8.608607451820829       11.617507809520770       -0.137883181912098       -0.019075022872489        1.587666681338324
Mo          3.371759887104865        9.600622310964363       10.000007589386426       -1.981765035684001       -1.021841441943622        0.000000000000000
Se          3.298518517315543       11.478618612369297        8.362651829217826        0.154878438508599        0.388777711087512       -0.415151327763497
Se          3.298518517315543       11.478618612369297       11.637368660653067        0.154878438508599        0.388777711087512        0.415151327763497
Mo         11.635058333004304        0.947235663767367       10.000007589386426       -0.385369198104352       -0.020731842489558        0.000000000000000
Se         11.597738574829718        2.852750091908286        8.332456909068101        0.259642197367767        0.212762224050171        0.199311748965235
Se         11.597738574829718        2.852750091908286       11.667558269704749        0.259642197367767        0.212762224050171       -0.199311748965235
Mo          9.915643452520273        3.786891243450307       10.000007589386426        0.651211870625010        0.658194475708863        0.000000000000000
Se          9.936686022967166        5.729008431529991        8.296956201973288        0.042523237065078        0.025726212610842        0.778077099239429
Se          9.936686022967166        5.729008431529991       11.703057649025054        0.042523237065078        0.025726212610842       -0.778077099239429
Mo          8.205115366836912        6.642361945331189       10.000007589386426        2.014079960198475        1.331327067456163        0.000000000000000
Se          8.274074663828957        8.608324635850032        8.278198731459451       -0.179978330109637       -0.141148484385216        0.954980645705285
Se          8.274074663828957        8.608324635850032       11.721817775087912       -0.179978330109637       -0.141148484385216       -0.954980645705285
Mo          6.528818635816060        9.523250234671996       10.000007589386426        2.473048304715610        1.436555939084927        0.000000000000000
Se          6.611343804984778       11.488397671641216        8.285543980053106        0.246741938605073       -0.123566758895708        0.714736144800855
Se          6.611343804984778       11.488397671641216       11.714468543170726        0.246741938605073       -0.123566758895708       -0.714736144800855
