# total energy = -9115.075056852336 eV 

 CRYSTAL
 PRIMVEC
        4.116046478171800        0.000000000000000        0.000000000000000
       -2.058023239085900        3.564599151258733        0.000000000000000
        0.000000000000000        0.000000000000000       19.999952158366341
 PRIMCOORD
12 1
Se          2.042841613255811        3.559950488366286        8.802206142430528        3.061497205150831        2.907757508740928      -95.219697534695229
Se         -0.020443168043136        3.556665883276705        8.841234083531903       -1.359628498143442       -0.632212438219221      -97.481017713513964
Se          3.078760370393781        1.774880813457109        8.807886698175052        2.204021833728448       -0.354155477565655      -96.074949929331581
Se          1.002234267574555        1.779201839049894        8.820067726122554       -2.285882452508650       -3.031782438424597      -94.221491483337928
Se          2.038551869616260        3.555427364891423       11.195599086092797       -1.845914568839027       -3.592927496644641       93.912346014925532
Se         -0.019880916094218        3.560664622430249       11.145017402527191        4.946762782557824        1.303209984947878      105.906033398075266
Se          3.075896013649621        1.776390990909951       11.190669708830539       -5.801746239683400       -1.301390414428015       94.533347667023861
Se          1.005420499153308        1.777810203735624       11.181055447466825        5.654725610165621        2.598599184806992       96.804273234432628
Mo          1.021448795743957        0.582615677264375       10.029079820621027       -8.868911187174184        3.941565384362019      -10.435887420802333
Mo          3.080792462540054        0.583174224771463        9.991029440558215        4.092685639701361        3.490033444839370        1.290376317786801
Mo         -0.021110379177248        2.367969359380545       10.025155993513385        0.316176924478123       -4.964102567131803       -8.568663539445826
Mo          2.047380789311939        2.371087264587760        9.965868460041799       -0.113786535212643       -0.364594932393687        9.555330988882764
