# total energy = -9475.443356516314 eV 

 CRYSTAL
 PRIMVEC
        6.638793177329500        0.000000000000000        0.000000000000000
       -3.319396588664750        5.749360861396781        0.000000000000000
        0.000000000000000        0.000000000000000       19.999981854470612
 PRIMCOORD
12 1
Se          3.298787783004366        5.739163675076402        9.056374109147859        0.520439591901811        0.220160319590446      -27.386786811534293
Se         -0.043035976772038        5.746444439553979        9.022669620065873        0.637585532005301        0.049067211753723      -23.760116913262525
Se          4.962456739536102        2.854785295304569        9.049925849334718       -0.584105276814681        0.082798300521892      -26.960818590830126
Se          1.632359080148814        2.858809067849349        8.998562170401037        0.145016710818921       -0.195700890072915      -24.490154985361617
Se          3.278240718120531        5.741153321391647       10.933042105981034        0.352479888887127       -0.288001992122873       27.490608003553582
Se         -0.021084807131198        5.733356722684192       10.975329226882669        0.721219441427795       -0.354815994262776       23.778259139491510
Se          4.959230949931237        2.859332204751722       10.936652945590183       -0.369799618847492        0.224194896472979       27.372190909479457
Se          1.629970442363611        2.870044561422661       10.932016412435136        0.041119414112068        0.466581127267258       24.391602757403870
Mo          1.643568018549417        0.945995497682885       10.015375002665131        0.213137348168933        0.347164644948011        0.925488793722688
Mo          4.963171737561301        0.950424236611481        9.975748046189651       -2.364532019116666       -0.704903984810737       -0.703849060712532
Mo         -0.033453542699881        3.817971284040831        9.965219584089725        0.866986914705102        1.262029892774104       -0.448268693932978
Mo          3.298313109292187        3.824127436954169        9.975014459543557       -0.179547927248220       -1.108573532059113       -0.208154548017042
