# total energy = -38121.57516787547 eV 

 CRYSTAL
 PRIMVEC
       13.277745107833699        0.000000000000000        0.000000000000000
       -6.638872553916849       11.498859207011680        0.000000000000000
        0.000000000000000        0.000000000000000       20.000015178772852
 PRIMCOORD
48 1
Mo          1.587527038327921        0.894192399836082       10.000007589386426        0.921175252022570        1.454406087864351        0.000000000000000
Se          1.635215387657216        2.856348360832509        8.280627231039674       -0.063335298009093        0.019353473469213        1.055849695756360
Se          1.635215387657216        2.856348360832509       11.719387947733178       -0.063335298009093        0.019353473469213       -1.055849695756360
Mo         -0.109358164257140        3.775599849010605       10.000007589386426        1.739439740061858        0.874091904354089        0.000000000000000
Se         -0.029835093257302        5.740987613166279        8.290288118380133        0.031698116590615       -0.077062166807305        0.882052557517292
Se         -0.029835093257302        5.740987613166279       11.709728388167228        0.031698116590615       -0.077062166807305       -0.882052557517292
Mo         -1.726997800715116        6.697329154528599       10.000007589386426        1.132484545027419        0.247875281384719        0.000000000000000
Se         -1.690120191452619        8.620133862348938        8.337676390669992        0.078071582359231       -0.104399176268075       -0.222283023308404
Se         -1.690120191452619        8.620133862348938       11.662338788102860        0.078071582359231       -0.104399176268075        0.222283023308404
Mo         -3.304855985055513        9.615283597112432       10.000007589386426       -0.466546160248648       -1.025814569433157        0.000000000000000
Se         -3.345107469349910       11.489628518612713        8.378347451709796        0.027637828664987        0.285046764829486       -0.766004478953976
Se         -3.345107469349910       11.489628518612713       11.621667727063054        0.027637828664987        0.285046764829486        0.766004478953976
Mo          4.961745963826756        0.977842194015434       10.000007589386426        0.049941130108536       -0.595009330191447        0.000000000000000
Se          4.951198123113094        2.868559903008184        8.366300553573460        0.027290215362337       -0.143771525001810       -1.053181403703918
Se          4.951198123113094        2.868559903008184       11.633718608522924        0.027290215362337       -0.143771525001810        1.053181403703918
Mo          3.369889052819171        3.871551474032366       10.000007589386426       -1.933066777398697       -1.315053005618489        0.000000000000000
Se          3.297440364412787        5.734113724523954        8.382013437134070       -0.122289691385159       -0.030514380166502       -1.576888097851864
Se          3.297440364412787        5.734113724523954       11.617997758315250       -0.122289691385159       -0.030514380166502        1.576888097851864
Mo          1.707389226739868        6.715587381826380       10.000007589386426       -1.825997252194732       -0.682594255606413        0.000000000000000
Se          1.641094773190965        8.600622215912976        8.349424539541403       -0.082311590476096        0.107346433138103       -0.522483362717466
Se          1.641094773190965        8.600622215912976       11.650587983682426       -0.082311590476096        0.107346433138103        0.522483362717466
Mo         -0.023143109722954        9.538724118820666       10.000007589386426       -0.012417405373362        0.483532932200927        0.000000000000000
Se         -0.021001409437061       11.475778502690732        8.299099230033692        0.076939010910878        0.039518901679378        0.540126794710403
Se         -0.021001409437061       11.475778502690732       11.700918604288182        0.076939010910878        0.039518901679378       -0.540126794710403
Mo          8.308003285903006        0.934130529345935       10.000007589386426       -0.822649506439212        0.111777217194736        0.000000000000000
Se          8.279185267920962        2.850239270308395        8.317788984047478       -0.083370371230765        0.129982692589738        0.318048174194607
Se          8.279185267920962        2.850239270308395       11.682228850274395       -0.083370371230765        0.129982692589738       -0.318048174194607
Mo          6.566725270324413        3.768918487672344       10.000007589386426        1.495879285929412        1.048016312256479        0.000000000000000
Se          6.614373786418385        5.731057187600130        8.280639181010271       -0.016217754653296        0.044067699423819        1.025882960807791
Se          6.614373786418385        5.731057187600130       11.719378653311603       -0.016217754653296        0.044067699423819       -1.025882960807791
Mo          4.869793595631476        6.650294070258608       10.000007589386426        2.342050797254896        1.320709949320342        0.000000000000000
Se          4.949321977729356        8.615697767708410        8.290266873987960        0.077696972461331       -0.073683221523706        0.864491657972692
Se          4.949321977729356        8.615697767708410       11.709748304784890        0.077696972461331       -0.073683221523706       -0.864491657972692
Mo          3.252111470389154        9.572010098031493       10.000007589386426        0.983933851335033        0.258462317600119        0.000000000000000
Se          3.289032896210507       11.494848000214603        8.337644524081734       -0.143098924114434       -0.319477708190713       -0.450172082453332
Se          3.289032896210507       11.494848000214603       11.662367999142099       -0.143098924114434       -0.319477708190713        0.450172082453332
Mo         11.525728052011891        0.926957891438683       10.000007589386426        1.296480633638515        0.452533641761646        0.000000000000000
Se         11.587117706517960        2.870081532597541        8.316992319341010       -0.378557571457084       -0.269539406296917       -0.071274868116958
Se         11.587117706517960        2.870081532597541       11.683028170529887       -0.378557571457084       -0.269539406296917        0.071274868116958
Mo          9.940848596058473        3.852531104165394       10.000007589386426       -0.333333132204401       -0.778779267826365        0.000000000000000
Se          9.930349883001709        5.743279351971891        8.366276653632266        0.087384379278822        0.030537520105288       -0.915285880491134
Se          9.930349883001709        5.743279351971891       11.633738525140586        0.087384379278822        0.030537520105288        0.915285880491134
Mo          8.349019568315613        6.746270922996073       10.000007589386426       -1.845871888507489       -1.356628790745500        0.000000000000000
Se          8.276590796526893        8.608834501262173        8.382020076006624        0.548938483400064        0.377409830493304       -1.022560065598139
Se          8.276590796526893        8.608834501262173       11.617997758315250        0.548938483400064        0.377409830493304        1.022560065598139
Mo          6.686570197667720        9.590333386280303       10.000007589386426       -1.960877898494147       -0.615039004094069        0.000000000000000
Se          6.620249188628602       11.475337681553151        8.349455078355151       -0.446787994961113        0.043940429760497       -0.473332590073683
Se          6.620249188628602       11.475337681553151       11.650558772643191       -0.446787994961113        0.043940429760497        0.473332590073683
