# total energy = -9529.017188187248 eV 

 CRYSTAL
 PRIMVEC
        6.771563749103600        0.000000000000000        0.000000000000000
       -3.385781874551800        5.864343495817446        0.000000000000000
        0.000000000000000        0.000000000000000       19.999962507379962
 PRIMCOORD
12 1
Se          3.351424991557973        5.838161921737911        8.481519704183615        0.716337428564837       -0.522736873602387       -1.014641835656044
Se         -0.067441389159197        5.809239218652739        8.359429764100028       -0.259831687755380        0.709716834967767        0.039078214400723
Se          5.027120219849399        2.923656506494225        8.167429522714320        0.169682342902078        0.444251857670181        1.711386935161312
Se          1.737820262751202        2.870474676277890        8.181117561676757       -0.408254083342720        0.345342760434270        2.356000580796745
Se          3.275324803832797        5.900232783687694       11.509878806522856       -0.429768312873672        0.335568450291117        2.692140587575873
Se         -0.072946670487219        5.883509729852908       11.682151451238301        0.740931583948188       -0.047442016719662       -0.194711014913741
Se          5.001326656372688        2.954237565541552       11.572516448358439        1.640636058102639       -0.795134576560221        1.277028943984677
Se          1.711627854169670        2.923356526220140       11.754073584130280       -1.199166392405812        0.263346130236093        0.394954532080754
Mo          1.631712567428249        1.021060397254210       10.127344210464997        0.994694437091327       -0.010453338791303       -2.837048283572070
Mo          5.044470997643727        1.010976861675420        9.862469754324184       -1.474413907380342        0.273092158231841        1.268379491976949
Mo          0.004157062985575        3.953001234839088        9.994711622780429       -0.111775931642581       -1.313384358921596       -0.580503416787444
Mo          3.328139615293931        3.860493548149834       10.188261875108308       -0.379071792318992        0.317832715653468       -5.112064992158166
