# total energy = -9521.05672894718 eV 

 CRYSTAL
 PRIMVEC
        6.904334320877699        0.000000000000000        0.000000000000000
       -3.452167160438850        5.979326130238110        0.000000000000000
        0.000000000000000        0.000000000000000       19.999950931310131
 PRIMCOORD
12 1
Se          3.415624590178740        5.972040676662719        7.904568686110411        0.033744458510579       -0.024087647834372        3.799041873392061
Se         -0.034589334080733        5.966100187413036        7.930258333251534        0.000467683873906       -0.002357702651850        3.753839031415578
Se          5.142430363768129        2.973624296491656        7.883520822933216        0.007358757644339        0.028650072431653        3.823979271200736
Se          1.704573126642730        2.984285279116523        7.918736380136854       -0.051155462673933       -0.009368589883108        3.770193054597279
Se          3.414651079039496        5.973069422476530       12.117434689020603        0.026455892013890        0.001132571448353       -3.880610414722699
Se         -0.018194301802377        5.959057766405741       12.097851925586300       -0.030247242428740        0.035146995911434       -3.860655302845054
Se          5.136504373620519        2.985256718955470       12.107016738963830        0.027962044918420       -0.033963773708183       -3.874665507338177
Se          1.710414193478193        2.978152849372719       12.109531297523496       -0.058415232802355       -0.010720476529065       -3.871633146915504
Mo          1.702969940213422        0.987283905347042        9.985482577482111       -0.024092018711698       -0.010601434399533        0.079196183384225
Mo          5.154754600530896        0.980358858023202        9.999354765999620       -0.063100556185632        0.026038858894883        0.055101593568217
Mo         -0.043621584239305        3.979533334102698        9.974354171423721        0.083785861687187       -0.026308824847385        0.102131205156629
Mo          3.412922233725548        3.973202059530453        9.975206856712349        0.047235814154037        0.026440208277602        0.104082416217140
