# total energy = -9529.584302526713 eV 

 CRYSTAL
 PRIMVEC
        6.572434350304899        0.000000000000000        0.000000000000000
       -3.286217175152450        5.691892458222800        0.000000000000000
        0.000000000000000        0.000000000000000       20.000068893967864
 PRIMCOORD
12 1
Se          3.254773334733721        5.651747371967703        8.290422025190713        0.581657585511997        0.175227443566466        0.716672957677232
Se         -0.013455744845379        5.643040868183855        8.283283046999411       -0.364285628545249        0.563371377441676        0.316975509476667
Se          4.972654536183059        2.784965211478966        8.348243016387519       -0.916894620457614        0.003519327578901       -0.557462979738349
Se          1.584025031740724        2.877377581904863        8.489198072437899        2.502275590064756       -1.645912735477111       -3.538821434665077
Se          3.285495521860786        5.718042202772359       11.720991547709215       -0.241952228386828       -0.360388605743277        0.075237711189254
Se          0.048275187546425        5.657220895294636       11.640069107014520       -0.404185824993733       -0.477259180575215        0.641604682261977
Se          4.899968670216167        2.803272070118306       11.755291768096585        0.441238009198537        0.026985025280794       -0.942543185718309
Se          1.640825323882929        2.874393696709824       11.581330603982410       -0.084827158932552        0.365170859759024        2.545616695410699
Mo          1.642164786003521        0.979405764066255       10.127672436553723       -0.048724740659692       -1.780146749042676       -2.815922290791859
Mo          4.907233181903560        0.888578664805652        9.987149189440160        0.698412203539575        0.582973990918483        0.186162864415808
Mo          0.044319896554411        3.729773681125216        9.905328954213214       -3.118457192913985        1.986465785693136        3.700187283567512
Mo          3.294265778257833        3.783535536867276       10.035512447606878        0.955744777906081        0.559993717710231       -0.327708070195986
