# total energy = -9522.140481982917 eV 

 CRYSTAL
 PRIMVEC
        7.833781241021299        0.000000000000000        0.000000000000000
       -3.916890620510650        6.784250399255471        0.000000000000000
        0.000000000000000        0.000000000000000       19.999996028483224
 PRIMCOORD
12 1
Se          3.887633797709807        6.772791927434229        8.304506105391152       -0.017938594767672        0.003988039894530        1.685856126477995
Se         -0.040416044178677        6.773514202064651        8.333549849342239        0.073665223793539       -0.007767306119125        1.583799226235912
Se          5.840286026737397        3.386929835908690        8.354610970208723        0.015435110501471       -0.012694570417931        1.429225206477562
Se          1.922137300959439        3.362689766614598        8.313043360187617        0.019660977544634        0.053982648972705        1.678325104844916
Se          3.897107189364574        6.762025961874692       11.665053332836331       -0.034946449775290        0.031904062045809       -1.846124370950685
Se         -0.035567716968609        6.760109818983140       11.700329633142774        0.043504370469599        0.023317344983233       -1.972486177341296
Se          5.833772237635488        3.385044244763976       11.657674694285413        0.028642616229156       -0.013092320254617       -1.714217721006117
Se          1.932522544750661        3.386803712030709       11.664450131680772       -0.008741754652441       -0.007153326410007       -1.780572266805905
Mo          1.944433025749510        1.109268907375485        9.974616563020703       -0.096704632400910        0.022580209377687        0.230504386448594
Mo          5.851864355411626        1.122682690994485        9.960752336980342       -0.052864989929347       -0.045976230152792        0.338500537645718
Mo         -0.018204924226009        4.513369608386369        9.992081978297559       -0.086001125160288       -0.004290915982194        0.215363924500996
Mo          3.865166513110558        4.519353050498261        9.985645743629934        0.116288991037120       -0.044797121716436        0.151826023472311
