# total energy = -38121.8936677432 eV 

 CRYSTAL
 PRIMVEC
       13.277745107833699        0.000000000000000        0.000000000000000
       -6.638872553916849       11.498859207011680        0.000000000000000
        0.000000000000000        0.000000000000000       20.000015178772852
 PRIMCOORD
48 1
Mo          1.583380398530744        0.993095667595314       10.000007589386426        0.712056539889450       -0.203702423794639        0.000000000000000
Se          1.658539074713637        2.919696482741983        8.344841061930179       -0.018130399149164       -0.305571119201264       -0.078570890816144
Se          1.658539074713637        2.919696482741983       11.655178100166205       -0.018130399149164       -0.305571119201264        0.078570890816144
Mo         -0.075614102840091        3.770133401349710       10.000007589386426        1.802211966227162        1.128435312850322        0.000000000000000
Se          0.035711823242030        5.693523657729306        8.339547224955686       -0.305185710665264        0.290550470714491       -0.056565066141208
Se          0.035711823242030        5.693523657729306       11.660467953817166       -0.305185710665264        0.290550470714491        0.056565066141208
Mo         -1.638593246012649        6.638851309524677       10.000007589386426       -0.606575185817489        0.223835970311367        0.000000000000000
Se         -1.701516480078673        8.546073255686464        8.317163602252901        0.030823941125371        0.290315471780599        0.059172423021515
Se         -1.701516480078673        8.546073255686464       11.682848920970931        0.030823941125371        0.290315471780599       -0.059172423021515
Mo         -3.288586763974884        9.610593897540348       10.000007589386426       -1.604385544221549       -1.014233287181257        0.000000000000000
Se         -3.406497123855979       11.519277723438504        8.320039561843258        0.317251903189942       -0.212080624297712        0.096141817667552
Se         -3.406497123855979       11.519277723438504       11.679978272478618        0.317251903189942       -0.212080624297712       -0.096141817667552
Mo          4.958616399304840        0.872938713241973       10.000007589386426       -0.274733037002191        1.040057458866293        0.000000000000000
Se          4.978055018142708        2.786520699310411        8.325803430994567       -0.075843720475013        0.281792518104899        0.030831397327868
Se          4.978055018142708        2.786520699310411       11.674207764454753       -0.075843720475013        0.281792518104899       -0.030831397327868
Mo          3.364974959354762        3.818063405639969       10.000007589386426       -0.922129903052703        0.012551874128751        0.000000000000000
Se          3.236799574730800        5.722960418633373        8.314424403437155        0.362687944327300        0.142026516506924        0.052478810062054
Se          3.236799574730800        5.722960418633373       11.685588119786678        0.362687944327300        0.142026516506924       -0.052478810062054
Mo          1.638128524933875        6.764185256695563       10.000007589386426       -0.025667334322154       -0.964699677105783        0.000000000000000
Se          1.605057645193793        8.682427731296851        8.333487262088470        0.074714748572694       -0.302682226399063       -0.002495513842841
Se          1.605057645193793        8.682427731296851       11.666527916684382        0.074714748572694       -0.302682226399063        0.002495513842841
Mo         -0.094915960903349        9.576201882162037       10.000007589386426        0.959062530907113       -0.160031702876213        0.000000000000000
Se          0.029898826433820       11.504568637408047        8.346924340137598       -0.280422376618344       -0.144101397684724       -0.150977044829300
Se          0.029898826433820       11.504568637408047       11.653088183086233       -0.280422376618344       -0.144101397684724        0.150977044829300
Mo          8.318912281283602        0.997648606392790       10.000007589386426       -0.569128079990739       -0.735677018070778        0.000000000000000
Se          8.215916812482135        2.908427660468965        8.323028382267029        0.269122887398771       -0.140334729871246        0.042718898103034
Se          8.215916812482135        2.908427660468965       11.676988124280333        0.269122887398771       -0.140334729871246       -0.042718898103034
Mo          6.562534813968381        3.867809805460978       10.000007589386426        0.710346498413174       -0.643066097951520        0.000000000000000
Se          6.637693490151274        5.794410620607648        8.344841061930179       -0.193688486729837       -0.297788643566712       -0.090047272012214
Se          6.637693490151274        5.794410620607648       11.655178100166205       -0.193688486729837       -0.297788643566712        0.090047272012214
Mo          4.903540312597546        6.644848866989886       10.000007589386426        0.740072063777509        0.690646697193466        0.000000000000000
Se          5.014864910905156        8.568239123369480        8.339547224955686       -0.317460162639015        0.116475138989130       -0.054102976654391
Se          5.014864910905156        8.568239123369480       11.660467953817166       -0.317460162639015        0.116475138989130        0.054102976654391
Mo          3.340561169424988        9.513565447390341       10.000007589386426       -0.627256377552149        0.688827898004897        0.000000000000000
Se          3.277637935358964       11.420788721326639        8.317163602252901        0.098685925381843        0.294908492519164        0.085336751806703
Se          3.277637935358964       11.420788721326639       11.682848920970931        0.098685925381843        0.294908492519164       -0.085336751806703
Mo         11.523227852608086        0.936738278485114       10.000007589386426        0.896058391133089        0.135055995613326        0.000000000000000
Se         11.653708253782767        2.864605790515070        8.346094481068359       -1.025591140468658       -0.518449814276657       -0.715113325803064
Se         11.653708253782767        2.864605790515070       11.653918042155471       -1.025591140468658       -0.518449814276657        0.715113325803064
Mo          9.937770814742477        3.747654178882148       10.000007589386426       -0.034745646528714        0.823199465651023        0.000000000000000
Se          9.957209433580346        5.661236164950586        8.325803430994567        0.172193026260345        0.212996708763201        0.142108020513537
Se          9.957209433580346        5.661236164950586       11.674207764454753        0.172193026260345        0.212996708763201       -0.142108020513537
Mo          8.344129374792399        6.692778871280144       10.000007589386426       -0.756710193985414       -0.038838844589505        0.000000000000000
Se          8.215952662393926        8.597674556499038        8.314424403437155        0.850789214665421        0.452798465505529        0.459138037401566
Se          8.215952662393926        8.597674556499038       11.685588119786678        0.850789214665421        0.452798465505529       -0.459138037401566
Mo          6.617284268146022        9.638899394561227       10.000007589386426       -0.059594855459572       -0.759926902587082        0.000000000000000
Se          6.584212060631430       11.557137885838983        8.333487262088470       -0.129388253273372       -0.272072201152246       -0.155140691148172
Se          6.584212060631430       11.557137885838983       11.666527916684382       -0.129388253273372       -0.272072201152246        0.155140691148172
