# total energy = -9499.453080187795 eV 

 CRYSTAL
 PRIMVEC
        5.178263970089500        0.000000000000000        0.000000000000000
       -2.589131985044750        4.484506054696759        0.000000000000000
        0.000000000000000        0.000000000000000       19.999998575148734
 PRIMCOORD
12 1
Se          2.569534845049946        4.474714993182114        8.201017566072780        0.000974962754178        0.233345970931499       -5.047460854172313
Se         -0.026721395564853        4.473514153767450        8.234569609640578        0.197638217170154        0.033978943223609       -5.388281556346962
Se          3.869481053837244        2.236292327692409        8.196395447653078        0.125015576174135       -0.147114989045938       -5.197455222934507
Se          1.281626546513915        2.232869495208180        8.253543804479779       -0.242023705086633       -0.280474827146259       -6.144935700258428
Se          2.580788766136142        4.465427258925361       11.771055667138056       -0.457992867542096       -0.200471574119269        5.389990312271084
Se         -0.020501782710378        4.480459759230531       11.731276243319828        0.459015909946862       -0.265973541730013        6.437051716386999
Se          3.863202408773510        2.228511468250953       11.807742113886949       -0.048728597316157        0.133756302384853        5.068968655942491
Se          1.277383994843221        2.239845652428685       11.780043579910940        0.223758837182081        0.184552067565880        5.327137353430460
Mo          1.281026903546179        0.733692169303674       10.026929367177214       -0.683557134170336        0.126031419486835       -0.756212685301518
Mo          3.867297897747454        0.740239048441058        9.997452099527480        0.543222661409522        0.496775919168083       -0.334370829903732
Mo         -0.008138159655393        2.974619561075711       10.005646184433751       -0.913318728583904       -0.433479701944495       -0.231507888460608
Mo          2.572743297405813        2.975336232809171        9.964075081281871        0.795994868062194        0.119074011225215        0.877076956457467
