# total energy = -9497.329355620017 eV 

 CRYSTAL
 PRIMVEC
        9.427081020035398        0.000000000000000        0.000000000000000
       -4.713540510017699        8.164087840376157        0.000000000000000
        0.000000000000000        0.000000000000000       19.999967175569981
 PRIMCOORD
12 1
Se          4.669417057303423        8.150793770721702        8.001756333335452       -0.079023919395485       -0.028987658427496        2.595119195124027
Se         -0.017776646679481        8.142473429013418        8.026986972977475        0.090259902338613       -0.006705440039285        2.551763691593951
Se          7.018736147474038        4.057820092798996        8.015567007029805        0.003538096640360       -0.033494547171691        2.567350240139254
Se          2.314287114392060        4.056060056772554        8.044123520855695        0.001703613715502        0.054964039487657        2.523106934291093
Se          4.661915928935781        8.156008831941985       12.009841974797046        0.072578160891465       -0.011402333391955       -2.596606064746235
Se         -0.038638776976819        8.158290185548834       11.944344501286043       -0.090508785235777        0.018275152321791       -2.548858857945031
Se          7.045436469047083        4.074578614728312       11.998989519126781        0.028149478422585        0.058192832279579       -2.577266989461156
Se          2.331623516387905        4.046372788316366       11.952941056468216        0.016491834372693       -0.064064720301710       -2.517408338699425
Mo          2.318743295590231        1.337827234212488       10.037193219279171        0.066596229604885        0.102086982162505        0.133391462683329
Mo          7.020833673000995        1.342383342469471        9.963845815402786       -0.072732941370899       -0.043832186269065       -0.103672325079768
Mo         -0.051734877929852        5.427893600348616        9.994548875576941        0.021853101078949        0.016265062972591       -0.010291359219802
Mo          4.665147532309449        5.438595222722560        9.994491370382718       -0.058904256842029       -0.061297183622920       -0.016627845790668
