# total energy = -9521.439219678286 eV 

 CRYSTAL
 PRIMVEC
        5.709346257185899        0.000000000000000        0.000000000000000
       -2.854673128592950        4.944436592379419        0.000000000000000
        0.000000000000000        0.000000000000000       19.999925579116063
 PRIMCOORD
12 1
Se          2.832126920223323        4.924069070541534        8.047631283266787       -0.115450553921778        0.179070473177938        1.235957352412767
Se         -0.023960413437532        4.926129002671126        8.046557926170436        0.073331237343729        0.018121657394511        1.225014732471358
Se          4.255874018527904        2.466265731781967        8.010759754203255        0.139091086716720       -0.159223090570862        1.324621113196017
Se          1.409762054647605        2.463538948009535        8.056035440957364       -0.168533830607005       -0.088461929094951        1.123721707319640
Se          2.835442337594870        4.932873453404740       11.941946105758127        0.036399637931043       -0.097856230021154       -1.031605467669537
Se         -0.018831707694702        4.941973009469443       12.009634973114069       -0.107042014387853       -0.162976902862793       -1.379888028771338
Se          4.256190316310553        2.456284652655154       11.936231621089307        0.016947176945913        0.149960173074877       -0.823264771700485
Se          1.407550253907571        2.458813322112463       11.989571759431694       -0.030804143622187        0.014757367405476       -1.262052004271167
Mo          1.399493224469431        0.807067477569542        9.991437022792176        0.218818717361727        0.065397837886208       -0.029313160233084
Mo          4.254639657867101        0.816170459241999       10.039932780835338       -0.082282536997398       -0.168083373131974       -0.287134758639265
Mo         -0.026591280192843        3.276466498577453       10.031926564578887        0.125191696819338        0.212877409523239       -0.171056341045097
Mo          2.835939050719245        3.275680321597838        9.979947534384214       -0.105666473582248        0.036416607219486        0.074999369819760
