# total energy = -9476.15145269097 eV 

 CRYSTAL
 PRIMVEC
        5.178263970089500        0.000000000000000        0.000000000000000
       -2.589131985044750        4.484506054696759        0.000000000000000
        0.000000000000000        0.000000000000000       19.999998575148734
 PRIMCOORD
12 1
Se          2.568169854667431        4.472054401154281        8.468206148227855        0.457321295096443       -0.644280687627348      -15.214013271470339
Se         -0.017281938173777        4.471066906215185        8.508190631299298       -0.173635929998860       -0.056292271973966      -17.853461647326466
Se          3.867665554489331        2.234012855892776        8.474825005234424       -0.561119347176948        0.371614304269166      -16.347227495900807
Se          1.266583171854408        2.231573375736467        8.467758228394443        0.786640162142357        0.174841006588742      -15.055571539499146
Se          2.581830115020527        4.464790332457040       11.475289281784852       -0.660391998562228        1.020961352938466       18.564974398654449
Se         -0.016548178169215        4.481731023035188       11.472643706722531        0.544551665227124       -0.174481309095837       18.570164172703258
Se          3.860441358424659        2.237650586331764       11.463575530858112        0.821869690502128       -1.029536500031649       20.133592282384242
Se          1.262546197263327        2.236670858788623       11.521890032730878        0.000816582728710       -0.313981201397774       16.582393808683459
Mo          1.285061289005276        0.734755784723130       10.001943207868740       -1.416875678257972        1.625711054696180       -1.877523210999670
Mo          3.867719926261016        0.742876856107422        9.984569614422691        1.089270452234367       -0.714298542847371       -0.568121492653554
Mo         -0.025874231579346        2.975768617850674        9.999753320035788        1.787369238158609       -0.483312845672031       -1.461701082121814
Mo          2.581035769327515        2.970436041614275       10.029581673982694       -2.675816132093731        0.223055640153421       -5.473504408232753
