# total energy = -9508.885896506958 eV 

 CRYSTAL
 PRIMVEC
        5.443805113637699        0.000000000000000        0.000000000000000
       -2.721902556818850        4.714471323538089        0.000000000000000
        0.000000000000000        0.000000000000000       19.999957500357748
 PRIMCOORD
12 1
Se          2.689812958815490        4.711850675756383        8.310991396948801        0.695991251721711       -0.295912251641609       -5.527246401842084
Se         -0.010642638997162        4.698446938805585        8.364681469262564       -0.505828777441979        0.625278941227680       -7.411396119978735
Se          4.071927573984692        2.337557939424778        8.332574451082840       -0.591083768131639       -0.001965866355076       -6.734748571529861
Se          1.342165795723284        2.349997578489952        8.311120959510506        0.466589869021910       -0.587710479277520       -5.755752268910872
Se          2.694449447630775        4.698225920317971       11.682549490321502        0.074225981643450       -0.186873774757397        6.260719469298723
Se         -0.018473552653130        4.694288960459788       11.672443610508546        0.207847301052051       -0.231644928320307        6.240531415370634
Se          4.074382730090943        2.343634859073132       11.671980887073888       -0.027399230185061        0.050419355510111        6.066676427284601
Se          1.330784432372202        2.348011134003985       11.676902631277127        0.072710315652975        0.189896622094125        5.986146097874156
Mo          1.345533333566580        0.766681559462234       10.032011732609053       -0.677586515742719        0.467115916963642       -1.444149438552728
Mo          4.068971043427476        0.767958131761382       10.001362565438761        0.239334587089284        0.169685171116818        0.478317189998591
Mo         -0.021066437028755        3.128034915419233        9.960663589648183        0.462015360234374       -0.494701809321576        2.240389847076482
Mo          2.709189638736972        3.124458879840085       10.005950060008024       -0.416816632024787        0.296412845650677       -0.399487646088907
