# total energy = -9517.852911004333 eV 

 CRYSTAL
 PRIMVEC
        5.974940318459000        0.000000000000000        0.000000000000000
       -2.987470159229500        5.174447689293456        0.000000000000000
        0.000000000000000        0.000000000000000       20.000067101485772
 PRIMCOORD
12 1
Se          2.957719138901797        5.169763336083784        7.695232587575046        0.156422386646479        0.017542901814433        2.671707764517515
Se         -0.013696953186035        5.158070975374591        7.685697777814849       -0.147788875485469       -0.062234865364610        2.699952630909984
Se          4.453824477340880        2.573035153872483        7.722424540964353        0.084795277239113        0.097977843254995        2.656579900981034
Se          1.474395392791962        2.565784563796033        7.673454527608295       -0.059807742896402       -0.038973056234463        2.814213020646876
Se          2.971073728007585        5.151327657731178       12.280383265645495       -0.133872259189213        0.000921998005402       -2.921014636781787
Se         -0.026153508761959        5.163974216409229       12.340879536369894        0.136323292927499        0.007179037453102       -2.518406698502820
Se          4.465939863824619        2.577631675459473       12.343372878964786       -0.005162777453560       -0.083193993475131       -2.822699464641380
Se          1.471026721440415        2.571438649819391       12.295757384578922        0.011543487018549        0.092116239650102       -2.627646235744038
Mo          1.473086283368187        0.859173713021194        9.972556592700387       -0.006169879011607        0.025023786913476       -1.034784381037855
Mo          4.445825227242527        0.854462472580089       10.036933587161624       -0.034610149331602       -0.015900223271067        0.996634592403307
Mo         -0.032505467814512        3.434621547794271       10.000371732364911       -0.030611310798972       -0.033657298074485       -0.357303537682258
Mo          2.974847500312723        3.430857335393642       10.014460641635837        0.028938807445615       -0.006802370671754        0.442767302041852
