# total energy = -9528.831570138414 eV 

 CRYSTAL
 PRIMVEC
        7.037104892651799        0.000000000000000        0.000000000000000
       -3.518552446325899        6.094308764658774        0.000000000000000
        0.000000000000000        0.000000000000000       19.999937665154004
 PRIMCOORD
12 1
Se          3.432598432325093        6.073016596385078        8.204543001580500        0.421936472036377        0.088725724397110        1.318311623220402
Se         -0.036433906871215        6.052834179552953        8.486970873052677        0.287571332151025       -0.037803975104914       -0.296500263197201
Se          5.247869602829363        3.000689786144186        8.204956783348189        0.279567741545853        0.115236123822362        1.486751865630539
Se          1.742674285300206        2.998618062463789        8.264895324271350       -0.386658864026018        0.006350113423706        1.352599870292448
Se          3.566349870177769        6.029155729010157       11.407329292005286       -0.550880181374629       -0.239527162802068        1.173817617907610
Se          0.026727628092781        6.047575351066674       11.781603345404886       -0.129433761819651        0.509672064163882       -1.004769566438697
Se          5.272836547278002        3.048930547604292       11.537424953866228       -0.956212976000849       -0.237535842514328        0.693106729796836
Se          1.704735141692452        3.039267195165703       11.644018092806693        0.595848538638081       -0.111399264861233       -0.669286991031519
Mo          1.782125702749390        0.983814004991314       10.001848443293831       -0.237658484189894        0.572109532548084       -0.746253255648078
Mo          5.262378705697032        1.028216025732479        9.994293407481079       -0.040798797404668       -0.417467121415101       -0.959644371812363
Mo         -0.064087617967869        4.076385862297876       10.116304139530854        0.955079376110772       -0.406521673258951       -2.189188104524978
Mo          3.509464025357039        3.995872234089579        9.854350724743847       -0.238360138555967        0.158161481601452       -0.158945411305432
