# total energy = -9526.53921600458 eV 

 CRYSTAL
 PRIMVEC
        6.638793177329500        0.000000000000000        0.000000000000000
       -3.319396588664750        5.749360861396781        0.000000000000000
        0.000000000000000        0.000000000000000       19.999981854470612
 PRIMCOORD
12 1
Se          3.280325299178213        5.739991532585615        8.494561589361124        0.436298660709476       -0.533290742572193       -3.993468781279597
Se          0.047484632080167        5.716275107838923        8.563887187115389       -2.755384868492409        1.471545326302186       -7.249952366615721
Se          4.992156708573521        2.863349338503324        8.620340164898810       -1.693379691908575        1.959144717079085       -7.643477621810803
Se          1.719025869561580        2.819662096120590        8.309760823080392       -0.111041624251776        0.233258039164113       -1.506085284486137
Se          3.313624157997062        5.716388631202256       11.693381096942629       -0.630754879186142        0.676460114944709       -0.276681419847961
Se          0.021266046184940        5.730630834205581       11.645530003479072       -0.297596067853928        0.060815615785743       -0.426954753427740
Se          4.892055657287111        2.879575876787353       11.675248561137389        1.037942468461265       -0.192088231407578       -0.093630362977991
Se          1.666998975189484        2.876881854515993       11.439192992131083       -1.416361200285633        0.043041828804312        2.570138088542090
Mo          1.586953718091787        0.948606535039529        9.978979146829058        1.369101731971949       -0.339958353789228        1.658584423066687
Mo          4.913352241920666        0.996785584886044        9.810483256591846        2.260611068250165       -1.775524417714982        9.447069499720895
Mo         -0.003583620557122        3.860450929944609        9.812997367568101        1.938495149927432       -2.037687582858255        7.100688962808730
Mo          3.306181406965958        3.833809452923986       10.028003978926366       -0.137930747341824        0.434283429151658        0.413769616307549
