# total energy = -9528.22106654753 eV 

 CRYSTAL
 PRIMVEC
        6.107710890233100        0.000000000000000        0.000000000000000
       -3.053855445116550        5.289430323714121        0.000000000000000
        0.000000000000000        0.000000000000000       20.000047449589029
 PRIMCOORD
12 1
Se          3.023057312952549        5.276250494384086        8.231361355996059        0.378833965170359       -0.150872400883902       -0.235243445911941
Se         -0.025996249862099        5.285514059491303        8.262946161322722       -0.105800942337637       -0.190400815649226       -0.678261944844835
Se          4.571322323505854        2.624709354836102        8.235863960464339       -0.215715394460111        0.200140930105062       -0.271390087178925
Se          1.489493562512036        2.640327382353516        8.235708213836638        0.339452103350679       -0.178979456085380       -0.097008022709436
Se          3.027195897851771        5.268391702781623       11.744396948924690       -0.022817522305458        0.141271126060781        0.425007913244555
Se         -0.022311467882022        5.273265045300940       11.770955718959780        0.213685250497297       -0.069477151983726       -0.009065713795444
Se          4.554192637543106        2.626183756245004       11.767634956548759        0.146004014873785       -0.136432050639792       -0.034816609007658
Se          1.506201816423358        2.623713187189904       11.759151956893314       -0.015622801116068        0.075140266335923        0.275579958761754
Mo          1.514048392604040        0.861763192659816       10.015554412046198       -0.298321633490080        0.180795427059209       -0.390552030171526
Mo          4.567759695743581        0.857846928436999        9.961947644333712       -0.181784273776659        0.287381841763412        1.133326324578363
Mo         -0.016277660293560        3.505140765831915        9.992970540258472       -0.181374953970580        0.124264556605318        0.409917587830994
Mo          3.036987779950993        3.515219099571889       10.012901833206570       -0.056537298214665       -0.282832529798109       -0.527493930795901
