# total energy = -38121.60114523478 eV 

 CRYSTAL
 PRIMVEC
       13.277745107833699        0.000000000000000        0.000000000000000
       -6.638872553916849       11.498859207011680        0.000000000000000
        0.000000000000000        0.000000000000000       20.000015178772852
 PRIMCOORD
48 1
Mo          1.641040334436023        0.947448107689092       10.000007589386426       -0.451056799446245       -0.260417899537956        0.000000000000000
Se          1.605791904498256        2.843573842264262        8.323771935993069        0.516981199495047        0.298459701791503        0.223823629010681
Se          1.605791904498256        2.843573842264262       11.676248553877826        0.516981199495047        0.298459701791503       -0.223823629010681
Mo         -0.018677804043190        3.822162245554757       10.000007589386426       -0.451017461550309       -0.260406586678994        0.000000000000000
Se         -0.053926233980956        5.718289307904437        8.323771935993069        0.516968858194361        0.298473585754774        0.223815658587321
Se         -0.053926233980956        5.718289307904437       11.676248553877826        0.516968858194361        0.298473585754774       -0.223815658587321
Mo         -1.678395942522402        6.696877711194931       10.000007589386426       -0.451024403531945       -0.260399130476496        0.000000000000000
Se         -1.713644372460168        8.593003445770101        8.323771935993069        0.516970143746516        0.298471528871327        0.223815658587321
Se         -1.713644372460168        8.593003445770101       11.676248553877826        0.516970143746516        0.298471528871327       -0.223815658587321
Mo         -3.338114081001614        9.571591849060596       10.000007589386426       -0.451027488857116       -0.260389360280120        0.000000000000000
Se         -3.373362510939380       11.467717583635766        8.323771935993069        0.516964230206604        0.298489012380632        0.223823629010681
Se         -3.373362510939380       11.467717583635766       11.676248553877826        0.516964230206604        0.298489012380632       -0.223823629010681
Mo          5.020535835840712        0.982122939038200       10.000007589386426       -1.641965061920240       -0.948029150983578        0.000000000000000
Se          4.966232513898693        2.867248061791529        8.360141007617935       -0.264732726790229       -0.152843666558028       -1.128285674579507
Se          4.966232513898693        2.867248061791529       11.639878154478447       -0.264732726790229       -0.152843666558028        1.128285674579507
Mo          3.360817697361500        3.856837076903864       10.000007589386426       -1.641999771828420       -0.947968987142734        0.000000000000000
Se          3.306514375419481        5.741963527431705        8.360141007617935       -0.264691589121276       -0.152860635846471       -1.128272304837097
Se          3.306514375419481        5.741963527431705       11.639878154478447       -0.264691589121276       -0.152860635846471        1.128272304837097
Mo          1.701099558882287        6.731552542544040       10.000007589386426       -1.641993858288507       -0.947986727762470        0.000000000000000
Se          1.646796236940269        8.616677665297368        8.360141007617935       -0.264732469679798       -0.152843409447597       -1.128287217242093
Se          1.646796236940269        8.616677665297368       11.639878154478447       -0.264732469679798       -0.152843409447597        1.128287217242093
Mo          0.041381420403075        9.606268008184214       10.000007589386426       -1.641977403220926       -0.948015009909875        0.000000000000000
Se         -0.012921901538944       11.491387819839501        8.360141007617935       -0.264727070360748       -0.152799443563903       -1.128272304837097
Se         -0.012921901538944       11.491387819839501       11.639878154478447       -0.264727070360748       -0.152799443563903        1.128272304837097
Mo          8.189660071531394        0.895339597013399       10.000007589386426        2.362888055021145        1.364176267446159        0.000000000000000
Se          8.289098432418472        2.869229101361618        8.302429288506737       -0.342219125808608       -0.197589109077842        0.688303392725750
Se          8.289098432418472        2.869229101361618       11.697588545815137       -0.342219125808608       -0.197589109077842       -0.688303392725750
Mo          6.529941933052182        3.770055062653574       10.000007589386426        2.362900653432262        1.364221261771577        0.000000000000000
Se          6.629380293939259        5.743943239227283        8.302429288506737       -0.342226582011106       -0.197575996445864        0.688303392725750
Se          6.629380293939259        5.743943239227283       11.697588545815137       -0.342226582011106       -0.197575996445864       -0.688303392725750
Mo          4.870223794572969        6.644769200519238       10.000007589386426        2.362855144885983        1.364233088851400        0.000000000000000
Se          4.969662155460046        8.618658704867457        8.302429288506737       -0.342187244115170       -0.197599136384649        0.688311106038679
Se          4.969662155460046        8.618658704867457       11.697588545815137       -0.342187244115170       -0.197599136384649       -0.688311106038679
Mo          3.210505656093757        9.519484666159414       10.000007589386426        2.362891911677610        1.364216376673388        0.000000000000000
Se          3.309944016980834       11.493367531635080        8.302429288506737       -0.342219382919039       -0.197543343421132        0.688311106038679
Se          3.309944016980834       11.493367531635080       11.697588545815137       -0.342219382919039       -0.197543343421132       -0.688311106038679
Mo         11.625738683713116        0.962684320200331       10.000007589386426       -0.944200262445808       -0.545168216040552        0.000000000000000
Se         11.563497925745635        2.843227293116947        8.333904183284856        0.427128817189496        0.246595642769860       -0.169542989048500
Se         11.563497925745635        2.843227293116947       11.666108339938974        0.427128817189496        0.246595642769860        0.169542989048500
Mo          9.966020545233905        3.837398458065996       10.000007589386426       -0.944202833550118       -0.545136334347114        0.000000000000000
Se          9.903779787266423        5.717941430982612        8.333904183284856        0.427130616962513        0.246603870303651       -0.169540675054622
Se          9.903779787266423        5.717941430982612       11.666108339938974        0.427130616962513        0.246603870303651        0.169540675054622
Mo          8.306302406754693        6.712113923706172       10.000007589386426       -0.944203347770979       -0.545135563015821        0.000000000000000
Se          8.244061648787211        8.592655568848278        8.333904183284856        0.427122646539153        0.246606698518391       -0.169542989048500
Se          8.244061648787211        8.592655568848278       11.666108339938974        0.427122646539153        0.246606698518391        0.169542989048500
Mo          6.646584268275480        9.586829389346345       10.000007589386426       -0.944229573034937       -0.545117308175223        0.000000000000000
Se          6.584343510307997       11.467368378939430        8.333904183284856        0.427151185796989        0.246615954493906       -0.169523705766179
Se          6.584343510307997       11.467368378939430       11.666108339938974        0.427151185796989        0.246615954493906        0.169523705766179
