# total energy = -9501.663248966406 eV 

 CRYSTAL
 PRIMVEC
        7.037104892651799        0.000000000000000        0.000000000000000
       -3.518552446325899        6.094308764658774        0.000000000000000
        0.000000000000000        0.000000000000000       19.999937665154004
 PRIMCOORD
12 1
Se          3.509493581197589        6.073340303210140        8.949200996795042       -0.201782065985843        0.157094216202562      -14.309980086100346
Se         -0.015621669151198        6.079380250339502        8.992849343602204        0.063653343612184       -0.049872224513041      -14.693765483950019
Se          5.240382123223581        3.028812168426690        8.992841602786823       -0.132721175789831       -0.167473764300181      -16.215538875601688
Se          1.722275125637386        3.032790947532995        8.962226677951342        0.192835394319931       -0.085139033885299      -14.049935253797702
Se          3.497588910850690        6.069374190892641       11.046943668821823        0.047203675350167        0.170276782218444       14.216185686667403
Se         -0.038948264449360        6.090240614320332       11.058535188000999        0.160807662156833       -0.314798041236916       14.892386891408142
Se          5.261147212340818        3.020046046861914       11.000457961321946       -0.166630956307514        0.136297581884403       16.207227009589801
Se          1.726737353849817        3.022490737101621       11.052880170509264        0.044965786159142        0.126047617443985       14.243722985153889
Mo          1.737650496117342        0.995370338646026        9.984822871716549       -0.583429333491703        0.229554877627080       -0.398715029243890
Mo          5.258352777987946        0.989510541401915       10.007214235774477        0.610898240603552       -1.141473382804008        0.118620725535443
Mo         -0.030897816452166        4.044262885883898        9.972130749332161        0.970920721093150        0.679128921218013       -0.308655930151852
Mo          3.488261228315480        4.052100813313334       10.001006805548668       -1.006721548830501        0.260356450144958        0.298447360490817
