# total energy = -38122.78450953171 eV 

 CRYSTAL
 PRIMVEC
       13.277745107833699        0.000000000000000        0.000000000000000
       -6.638872553916849       11.498859207011680        0.000000000000000
        0.000000000000000        0.000000000000000       20.000015178772852
 PRIMCOORD
48 1
Mo          1.613117236474248        0.981522784959326       10.000007589386426        0.190120565279486       -0.317873853322421        0.000000000000000
Se          1.621240560931221        2.884185153451082        8.330514374958828       -0.112239758860023        0.194216334444586       -0.001990548956447
Se          1.621240560931221        2.884185153451082       11.669498148265003       -0.112239758860023        0.194216334444586        0.001990548956447
Mo         -0.046600902004964        3.856238250599501       10.000007589386426        0.190147561874736       -0.317798005745289        0.000000000000000
Se         -0.038476249773480        5.758900619091257        8.330514374958828       -0.112242072853901        0.194223533536652       -0.001990806066878
Se         -0.038476249773480        5.758900619091257       11.669498148265003       -0.112242072853901        0.194223533536652        0.001990806066878
Mo         -1.706319040484176        6.730952388465165       10.000007589386426        0.190130849696724       -0.317802119512184        0.000000000000000
Se         -1.698195716027204        8.633614756956922        8.330514374958828       -0.112234102430542        0.194223019315790       -0.001990548956447
Se         -1.698195716027204        8.633614756956922       11.669498148265003       -0.112234102430542        0.194223019315790        0.001990548956447
Mo         -3.366037178963388        9.605666526330829       10.000007589386426        0.190129307034138       -0.317801091070460        0.000000000000000
Se         -3.357913854506416       11.508327567048074        8.330514374958828       -0.112236416424420        0.194264671205605       -0.001972037005418
Se         -3.357913854506416       11.508327567048074       11.669498148265003       -0.112236416424420        0.194264671205605        0.001972037005418
Mo          4.907485130669083        1.024942339236453       10.000007589386426        0.130259086303014       -0.227280735865291        0.000000000000000
Se          4.907436003012184        2.941760111787671        8.330514374958828        0.015059472161847       -0.027611346290598       -0.000100273068072
Se          4.907436003012184        2.941760111787671       11.669498148265003        0.015059472161847       -0.027611346290598        0.000100273068072
Mo          3.247765664415360        3.899656477102117       10.000007589386426        0.130270913382838       -0.227220829134878        0.000000000000000
Se          3.247717864532972        5.816475577427846        8.330514374958828        0.015059729272278       -0.027612374732322       -0.000098216184624
Se          3.247717864532972        5.816475577427846       11.669498148265003        0.015059729272278       -0.027612374732322        0.000098216184624
Mo          1.588047525936148        6.774371942742293       10.000007589386426        0.130264742732495       -0.227220829134878        0.000000000000000
Se          1.587999726053759        8.691189715293511        8.330514374958828        0.015056386836676       -0.027611603401029       -0.000101301509796
Se          1.587999726053759        8.691189715293511       11.669498148265003        0.015056386836676       -0.027611603401029        0.000101301509796
Mo         -0.071669284768554        9.649087408382467       10.000007589386426        0.130259600523876       -0.227188433220578        0.000000000000000
Se         -0.071718412425453       11.565907836482706        8.330514374958828        0.015056643947107       -0.027614688726201       -0.000080989785751
Se         -0.071718412425453       11.565907836482706       11.669498148265003        0.015056643947107       -0.027614688726201        0.000080989785751
Mo          8.240439479921793        1.001528363513299       10.000007589386426       -0.154478374678034        0.266856973170772        0.000000000000000
Se          8.232349349827590        2.932273162908123        8.330514374958828        0.128442086887461       -0.224926889869905       -0.001476842315401
Se          8.232349349827590        2.932273162908123       11.669498148265003        0.128442086887461       -0.224926889869905        0.001476842315401
Mo          6.580721341442581        3.876242501378963       10.000007589386426       -0.154489944647427        0.266880370219989        0.000000000000000
Se          6.572631211348377        5.806988628548298        8.330514374958828        0.128439258672720       -0.224925604317751       -0.001476585204970
Se          6.572631211348377        5.806988628548298       11.669498148265003        0.128439258672720       -0.224925604317751        0.001476585204970
Mo          4.921003202963369        6.750957967019139       10.000007589386426       -0.154485573770101        0.266882427103436        0.000000000000000
Se          4.912913072869165        8.681702766413963        8.330514374958828        0.128438487341428       -0.224927661201198       -0.001481470303158
Se          4.912913072869165        8.681702766413963       11.669498148265003        0.128438487341428       -0.224927661201198        0.001481470303158
Mo          3.261285064484156        9.625672104884803       10.000007589386426       -0.154482745555360        0.266911223471703        0.000000000000000
Se          3.253194934389953       11.556418232054138        8.330514374958828        0.128450828642113       -0.224898864832931       -0.001454216597477
Se          3.253194934389953       11.556418232054138       11.669498148265003        0.128450828642113       -0.224898864832931        0.001454216597477
Mo         11.600837600537885        0.930582715853122       10.000007589386426       -0.330721661557200        0.566705328399858        0.000000000000000
Se         11.591468823589798        2.863546226455465        8.330514374958828        0.051113296563256       -0.086007552921062       -0.002402182756405
Se         11.591468823589798        2.863546226455465       11.669498148265003        0.051113296563256       -0.086007552921062        0.002402182756405
Mo          9.941118134284162        3.805298181493297       10.000007589386426       -0.330674610348335        0.566753408050446        0.000000000000000
Se          9.931748029561563        5.738261692095640        8.330514374958828        0.051132579845578       -0.086002667822874       -0.002400897204250
Se          9.931748029561563        5.738261692095640       11.669498148265003        0.051132579845578       -0.086002667822874        0.002400897204250
Mo          8.281399995804950        6.680012319358960       10.000007589386426       -0.330692093857640        0.566757521817342        0.000000000000000
Se          8.272029891082351        8.612974502186795        8.330514374958828        0.051132065624716       -0.085997268503824       -0.002404753860714
Se          8.272029891082351        8.612974502186795       11.669498148265003        0.051132065624716       -0.085997268503824        0.002404753860714
Mo          6.621681857325737        9.554726457224627       10.000007589386426       -0.330692608078502        0.566763178246823        0.000000000000000
Se          6.612311752603139       11.487688640052458        8.330514374958828        0.051139264716783       -0.085953559730562       -0.002386756130547
Se          6.612311752603139       11.487688640052458       11.669498148265003        0.051139264716783       -0.085953559730562        0.002386756130547
