# total energy = -9519.573000905926 eV 

 CRYSTAL
 PRIMVEC
        5.709346257185899        0.000000000000000        0.000000000000000
       -2.854673128592950        4.944436592379419        0.000000000000000
        0.000000000000000        0.000000000000000       19.999925579116063
 PRIMCOORD
12 1
Se          2.835970452123660        4.933935962743202        8.279626571885156       -0.031918460229942        0.003165286515477       -2.540661406074919
Se         -0.027214740804128        4.941820569924376        8.324941082193815        0.094251284668746        0.083752180220732       -3.806897882609865
Se          4.268130843072831        2.465385921523735        8.287520314020341       -0.147643350981549       -0.324420399115375       -3.204204035858060
Se          1.417082578418569        2.450732884354667        8.306533007991396       -0.034594465595313        0.152237914382700       -3.310907950029209
Se          2.824627693914509        4.936104372451681       11.666992554031440        0.190030833739083       -0.155286986983385        4.593295589615833
Se         -0.016232242343805        4.937726968657974       11.721972416618888       -0.159959711955546       -0.287141957731331        3.400392150197633
Se          4.256281094916042        2.468671079360119       11.656840765451536        0.361640219321162       -0.072646809376529        4.848351451116240
Se          1.402235994411383        2.464180107594217       11.685884780796467       -0.116229598527569        0.233435188251040        3.958814408953872
Mo          1.409589632390638        0.817851290780114       10.027297426633561       -0.158889618341915       -0.296413616981969       -1.128659256035683
Mo          4.255402426527061        0.809666371985813       10.023385382578136        0.154699746759086        0.000338871547998       -1.587632999871869
Mo         -0.029044015344930        3.288128980177006        9.984223834730848        0.591881581798890        0.104330270672580        0.342175931256208
Mo          2.848168470402137        3.275639214304786       10.015757695978536       -0.743268203544700        0.558649801487633       -1.564066257770611
