# total energy = -9505.482449231351 eV 

 CRYSTAL
 PRIMVEC
        6.572434350304899        0.000000000000000        0.000000000000000
       -3.286217175152450        5.691892458222800        0.000000000000000
        0.000000000000000        0.000000000000000       20.000068893967864
 PRIMCOORD
12 1
Se          3.256936980121842        5.676780459921145        8.858980974558799       -0.025005789183309       -0.498394943551802      -14.112064960996054
Se         -0.031116533188084        5.673161677567866        8.804639430107043        0.054340803803024        0.006691298965582      -13.329162413188477
Se          4.909439548114957        2.837722142008864        8.830380369240011       -0.798944438926100        0.147412980035414      -14.003178179266103
Se          1.621711370305372        2.838514120348075        8.808097187818737        0.545498088723466        0.139658272327405      -13.411518997989990
Se          3.268697694148277        5.675032849627399       11.161624805023465       -0.311096936583331        0.665447818076511       14.113196504002683
Se         -0.024175385270727        5.669774902147154       11.195288813765726        0.056446795342969        0.033776597314448       13.003516882869606
Se          4.917311352736316        2.831931827346245       11.182682227438406        0.203281534019167       -0.438154998020965       13.946209706858729
Se          1.630046531548429        2.825815519939851       11.159436841628247       -0.628372751043352       -0.174030851620805       13.976672664939040
Mo          1.620716303744736        0.932461494475767        9.971755890948311        0.742656537829460        0.212802847498262       -0.089215519768077
Mo          4.894507634514499        0.939515688263950        9.962922539181500       -0.580342979878529       -0.111872862275051        0.124716556742935
Mo         -0.031095501398163        3.772920398148098        9.968180486661746        0.667954644778314        0.589818784811344        0.183827273261021
Mo          3.267925433112116        3.777063660762531       10.029484210820778        0.073584748228650       -0.573154686449912       -0.402999517465310
