# total energy = -9496.978599091193 eV 

 CRYSTAL
 PRIMVEC
        4.912722826541299        0.000000000000000        0.000000000000000
       -2.456361413270649        4.254540785855428        0.000000000000000
        0.000000000000000        0.000000000000000       20.000043430170312
 PRIMCOORD
12 1
Se          2.430392760409552        4.242151390159174        7.648815168827493        0.022900311864225       -0.021014149742746       -0.644863042753459
Se         -0.014335816480130        4.243162919789158        7.649119266370455       -0.070100901889221       -0.034764672700605       -0.649104079312048
Se          3.655711805998416        2.118092935415453        7.617591376358844        0.013628138392725        0.017885887129326       -1.103778422521818
Se          1.202594263610132        2.116081175417984        7.614878570814028       -0.006166279465574        0.019018458577679       -1.086755655109205
Se          2.433563431721802        4.245667425886129       12.339409232766727        0.107535152194423       -0.021174072430799        0.926921413043965
Se         -0.007124921915333        4.239123679081176       12.343116864683918       -0.176506567960463        0.069425729897536        0.992856097510005
Se          3.657240645342037        2.116992976774590       12.340185934245604       -0.024741736770719        0.029941281015905        0.933002331846462
Se          1.203312503687373        2.124003432248064       12.341822362219125        0.065222231461866       -0.128934710473169        0.927801502049121
Mo          1.215930832267344        0.698115108181411       10.023821892090618        0.084284913033669       -0.081482409336269        0.775034454399518
Mo          3.669481185536647        0.705352040177189       10.020195811372348        0.145505991969027        0.064344970671450        0.653094947421318
Mo         -0.016156962831929        2.828579753490943        9.995543768228764        0.135977736508297        0.002528166867572       -0.447736475340903
Mo          2.439002307163066        2.827950924969146        9.979780314495240       -0.297539503559118        0.084225520524119       -1.276473071232955
