# total energy = -9530.00012544934 eV 

 CRYSTAL
 PRIMVEC
        6.373252033781299        0.000000000000000        0.000000000000000
       -3.186626016890650        5.519395592555450        0.000000000000000
        0.000000000000000        0.000000000000000       20.000010552493670
 PRIMCOORD
12 1
Se          3.163454147146227        5.512490811302051        8.275626339726797       -0.143529584086282       -0.213646426822223       -0.174437857433006
Se         -0.028079273810434        5.495004519696965        8.316998305304089        0.213466706630986        0.263885547920235       -0.858985123872947
Se          4.759854358876716        2.753282480780521        8.329407027013861       -0.106427006237011       -0.164189178544742       -0.936317256632754
Se          1.577841939133321        2.753174772821150        8.331556087599651        0.003260160264499        0.032918362695923       -0.932943710668204
Se          3.174822116798883        5.500749369080216       11.668011523877670       -0.023992002754057        0.091157731963505        0.745192675120392
Se         -0.037238911633384        5.510969516041588       11.666941454861199        0.058042422677471        0.041693284593958        0.647680973076717
Se          4.764180522357247        2.749600653080605       11.654944445232807        0.084490858488864       -0.050971114494939        1.152457140414370
Se          1.568245733546056        2.754631698236072       11.677870944773929       -0.108917892092095       -0.201452964634221        0.466866005624755
Mo          1.563001184447458        0.899731746690211        9.965090689630172       -0.001503581800220        0.186038680077657        0.590517610962678
Mo          4.763968930389725        0.911230368009559       10.007624499053222       -0.064930154012302       -0.336649085432417       -0.548980392400309
Mo         -0.032195119973850        3.675893564946803        9.979651021226548        0.364911435334192       -0.145074560665886        0.471331242479136
Mo          3.174126157676795        3.656017303829049       10.012976756111192       -0.274871105303613        0.496289209122287       -0.622381049560396
