# total energy = -9475.922932610769 eV 

 CRYSTAL
 PRIMVEC
        4.647181682993100        0.000000000000000        0.000000000000000
       -2.323590841496550        4.024575517014100        0.000000000000000
        0.000000000000000        0.000000000000000       20.000094397824135
 PRIMCOORD
12 1
Se          2.297955128460487        4.014901014186445        7.866043246073073        0.415842697712332       -0.160214765503052       -3.361142700249895
Se         -0.011608195125948        4.011688417488991        7.792139115768434       -0.311319079995675        0.035287378206735       -4.236529155623838
Se          3.470844301322403        2.000403056070963        7.813014255888438       -0.086276747542271        0.170284238420941       -4.018392809345863
Se          1.143182993389719        2.002705734594886        7.848600979062295        0.078434622287738       -0.172307954622981       -3.480684652459447
Se          2.296069766851697        4.016842606693599       12.196315021376142        0.275505396736777       -0.061315438463518        4.008891807590814
Se         -0.016165221484291        4.007190410338023       12.196736056036620       -0.169962336161387       -0.027636543112832        4.112646922229350
Se          3.464515304588335        1.997951203015016       12.147237065058388        0.092365636768128        0.090077868153498        3.522804483258357
Se          1.153549461569972        1.995370158308281       12.130954734595685       -0.109110982025741       -0.068735902611286        3.360024269875244
Mo          1.133305873440686        0.667801866718782       10.001436241517116        0.350604268293316       -0.458724089607729        0.174411375058617
Mo          3.466522887075388        0.666618229544123        9.975017013649300       -0.666951914097593        0.118941342242843       -0.682579857422280
Mo         -0.015579676592234        2.672998955413920       10.018264151109401       -0.121069959500712        0.512312845400212        0.556217022589945
Mo          2.301615713472181        2.679656507892976        9.997036289899658        0.251938397525088        0.022031021497169        0.044333294498995
