# total energy = -38122.08911781368 eV 

 CRYSTAL
 PRIMVEC
       13.277745107833699        0.000000000000000        0.000000000000000
       -6.638872553916849       11.498859207011680        0.000000000000000
        0.000000000000000        0.000000000000000       20.000015178772852
 PRIMCOORD
48 1
Mo          1.599121165356081        0.916836266342982       10.000007589386426        0.738789082727047        0.771182683033393        0.000000000000000
Se          1.713374834234479        2.827687020242739        8.337191752973556       -0.325838106031657        0.140648404597010       -0.063334012456939
Se          1.713374834234479        2.827687020242739       11.662828736897339       -0.325838106031657        0.140648404597010        0.063334012456939
Mo          0.027442443588871        3.764024310825596       10.000007589386426       -0.798727951943236        0.441207413057253        0.000000000000000
Se          0.030603874699046        5.686388197508355        8.336243721972858       -0.157679913764275        0.127907297191076       -0.007734653094394
Se          0.030603874699046        5.686388197508355       11.663768801250974       -0.157679913764275        0.127907297191076        0.007734653094394
Mo         -1.616524305868919        6.686619325324620       10.000007589386426       -1.019168007682561       -0.092379520731399        0.000000000000000
Se         -1.728670796598704        8.612451359029546        8.327378171564357        0.192795799313564        0.045065545006353        0.014071396775690
Se         -1.728670796598704        8.612451359029546       11.672638334983008        0.192795799313564        0.045065545006353       -0.014071396775690
Mo         -3.354547946121580        9.618454322644185       10.000007589386426        0.188788733247143       -0.582613007873423        0.000000000000000
Se         -3.426863857076886       11.534917579401023        8.322846477159052        0.826810581653774       -0.364940488812889       -0.061874653650843
Se         -3.426863857076886       11.534917579401023       11.677168701613798        0.826810581653774       -0.364940488812889        0.061874653650843
Mo          5.006598186801019        0.889308845185421       10.000007589386426       -1.495406974067749        0.951121675247094        0.000000000000000
Se          5.009758290136683        2.811672731868181        8.336243721972858       -0.139676784278434        0.253976511911261       -0.009577106442612
Se          5.009758290136683        2.811672731868181       11.663768801250974       -0.139676784278434        0.253976511911261        0.009577106442612
Mo          3.362630109568719        3.811905187458955       10.000007589386426       -0.534378833915991       -0.134958550759994        0.000000000000000
Se          3.250484946613444        5.737737221163881        8.327378171564357        0.181452601320728        0.093561200272065        0.011552228773201
Se          3.250484946613444        5.737737221163881       11.672638334983008        0.181452601320728        0.093561200272065       -0.011552228773201
Mo          1.624607797090568        6.743740184778519       10.000007589386426       -0.119742755456127       -0.564500606454426        0.000000000000000
Se          1.552290558360752        8.660200785986337        8.322846477159052        0.199666818470383       -0.143413113061060        0.042391082303567
Se          1.552290558360752        8.660200785986337       11.677168701613798        0.199666818470383       -0.143413113061060       -0.042391082303567
Mo         -0.099257783553611        9.605876314703533       10.000007589386426        0.626053614956145       -0.149051030591023        0.000000000000000
Se         -0.031651488788054       11.513078344247658        8.328910423349800        0.539996953942771       -0.269145513116695       -0.210855493094215
Se         -0.031651488788054       11.513078344247658       11.671108738746584        0.539996953942771       -0.269145513116695        0.210855493094215
Mo          8.341784525006355        0.937189721818780       10.000007589386426       -0.929575306912274       -0.050208782067160        0.000000000000000
Se          8.229639362051081        2.863021755523706        8.327378171564357        0.205331218374734        0.075214314140038        0.016665641024018
Se          8.229639362051081        2.863021755523706       11.672638334983008        0.205331218374734        0.075214314140038       -0.016665641024018
Mo          6.603762212528205        3.869024719138344       10.000007589386426       -0.036826955467288       -0.507099417191755        0.000000000000000
Se          6.531444973798388        5.785485320346162        8.322846477159052        0.206390256239834       -0.144428185042467        0.033306085225802
Se          6.531444973798388        5.785485320346162       11.677168701613798        0.206390256239834       -0.144428185042467       -0.033306085225802
Mo          4.879897959658536        6.731160849063358       10.000007589386426        0.510884339845831       -0.232647401890597        0.000000000000000
Se          4.947502926649583        8.638361550832972        8.328910423349800       -0.009813905149520       -0.170505096281131        0.006603367198196
Se          4.947502926649583        8.638361550832972       11.671108738746584       -0.009813905149520       -0.170505096281131       -0.006603367198196
Mo          3.258839303835293        9.540981335488997       10.000007589386426        0.307063388142522        0.587938022008915        0.000000000000000
Se          3.373092972713692       11.451828106065221        8.337191752973556       -0.425932996575128        0.199598427095749       -0.113195181221448
Se          3.373092972713692       11.451828106065221       11.662828736897339       -0.425932996575128        0.199598427095749        0.113195181221448
Mo         11.582917955740353        0.994309253498170       10.000007589386426        0.867294418780523       -0.825681095530592        0.000000000000000
Se         11.510598061461515        2.910769854705987        8.322846477159052        0.538630669112680       -0.127621647502286        0.222532420426429
Se         11.510598061461515        2.910769854705987       11.677168701613798        0.538630669112680       -0.127621647502286       -0.222532420426429
Mo          9.859052375096173        3.856445383423183       10.000007589386426        0.566610454650836       -0.149546225281040        0.000000000000000
Se          9.926657342087220        5.763647412967308        8.328910423349800        0.117674044928670       -0.086909239202419        0.127301287905317
Se          9.926657342087220        5.763647412967308       11.671108738746584        0.117674044928670       -0.086909239202419       -0.127301287905317
Mo          8.237993719272930        6.666267197623332       10.000007589386426        0.318506602092999        0.508571888629829        0.000000000000000
Se          8.352247388151328        8.577116623748578        8.337191752973556       -0.510898480919533        0.020924161091912       -0.154397899113145
Se          8.352247388151328        8.577116623748578       11.662828736897339       -0.510898480919533        0.020924161091912        0.154397899113145
Mo          6.666316325280230        9.513452586556925       10.000007589386426       -0.436498435514328        0.370421311869539        0.000000000000000
Se          6.669476428615896       11.435817801014196        8.336243721972858       -0.815741463380335        0.179188743976177       -0.061247304199315
Se          6.669476428615896       11.435817801014196       11.663768801250974       -0.815741463380335        0.179188743976177        0.061247304199315
