# total energy = -38122.78909696492 eV 

 CRYSTAL
 PRIMVEC
       26.555490215667398        0.000000000000000        0.000000000000000
       -3.319436276958425        5.749422964633285        0.000000000000000
        0.000000000000000        0.000000000000000       20.000028456517960
 PRIMCOORD
48 1
Mo          1.633414925420594        0.946365971462804       10.000008917160937       -0.272445011277130        0.478670202620291        0.000000000000000
Se          1.625456245002958        2.876886376965306        8.330515702733337        0.129186421585073       -0.219017463724855        0.000537875021556
Se          1.625456245002958        2.876886376965306       11.669499476039515        0.129186421585073       -0.219017463724855       -0.000537875021556
Mo         -0.026303213058619        3.821080109328468       10.000008917160937       -0.272407730264641        0.478687686129596        0.000000000000000
Se         -0.034261893476254        5.751600514830971        8.330515702733337        0.129189249799814       -0.219004865313738        0.000544045671899
Se         -0.034261893476254        5.751600514830971       11.669499476039515        0.129189249799814       -0.219004865313738       -0.000544045671899
Mo          4.984133569853075        0.892184804775778       10.000008917160937       -0.225988755949746        0.400484463229716        0.000000000000000
Se          4.978363061829210        2.818910430726461        8.330515702733337        0.084246603579457       -0.143054186899448       -0.000807583863627
Se          4.978363061829210        2.818910430726461       11.669499476039515        0.084246603579457       -0.143054186899448        0.000807583863627
Mo          3.324415431373863        3.766898942641442       10.000008917160937       -0.225979242863801        0.400504260732900        0.000000000000000
Se          3.318644923349998        5.693627224141147        8.330515702733337        0.084251231567214       -0.143046473586519       -0.000801670323715
Se          3.318644923349998        5.693627224141147       11.669499476039515        0.084251231567214       -0.143046473586519        0.000801670323715
Mo          8.321154892432315        0.861728313047429       10.000008917160937       -0.105668787576127        0.189373659477564        0.000000000000000
Se          8.320273250157154        2.779985393168336        8.330515702733337        0.005792955119828       -0.011003040892683       -0.001044382570536
Se          8.320273250157154        2.779985393168336       11.669499476039515        0.005792955119828       -0.011003040892683        0.001044382570536
Mo          6.661436753953102        3.736442450913093       10.000008917160937       -0.105659017379751        0.189381887011354        0.000000000000000
Se          6.660555111677942        5.654702186583021        8.330515702733337        0.005811209960426       -0.010988642708550       -0.001031269938557
Se          6.660555111677942        5.654702186583021       11.669499476039515        0.005811209960426       -0.010988642708550        0.001031269938557
Mo         11.636411335230793        0.868975306327284       10.000008917160937        0.056483819245027       -0.100639450436233        0.000000000000000
Se         11.640870002038003        2.777977798108031        8.330515702733337       -0.075578125399838        0.126120893916807       -0.000878803453001
Se         11.640870002038003        2.777977798108031       11.669499476039515       -0.075578125399838        0.126120893916807        0.000878803453001
Mo          9.976687885653536        3.743689444192948       10.000008917160937        0.056545268638025       -0.100627109135547        0.000000000000000
Se          9.981151863558791        5.652691935973696        8.330515702733337       -0.075568098093030        0.126143776745162       -0.000873147023520
Se          9.981151863558791        5.652691935973696       11.669499476039515       -0.075568098093030        0.126143776745162        0.000873147023520
Mo         14.931812237995016        0.910598381691321       10.000008917160937        0.193901888387529       -0.340548422228268        0.000000000000000
Se         14.939622207667444        2.813806465507009        8.330515702733337       -0.120609731829304        0.206392827344144       -0.000495966021311
Se         14.939622207667444        2.813806465507009       11.669499476039515       -0.120609731829304        0.206392827344144        0.000495966021311
Mo         13.272091443966783        3.785315175106007       10.000008917160937        0.193984163725434       -0.340523996737327        0.000000000000000
Se         13.279901413639211        5.688523258921696        8.330515702733337       -0.120596619197326        0.206384342699922       -0.000517306187080
Se         13.279901413639211        5.688523258921696       11.669499476039515       -0.120596619197326        0.206384342699922        0.000517306187080
Mo         18.218396718007639        0.967496175027410       10.000008917160937        0.249321270448405       -0.427105163029848        0.000000000000000
Se         18.226026110346602        2.871028235823730        8.330515702733337       -0.110014725190545        0.192769574049606       -0.000565385837668
Se         18.226026110346602        2.871028235823730       11.669499476039515       -0.110014725190545        0.192769574049606        0.000565385837668
Mo         16.558683890626469        3.842212968442096       10.000008917160937        0.249225882478521       -0.427083822864079        0.000000000000000
Se         16.566305316318367        5.745745029238416        8.330515702733337       -0.109979758171935        0.192791428436238       -0.000529904598197
Se         16.566305316318367        5.745745029238416       11.669499476039515       -0.109979758171935        0.192791428436238        0.000529904598197
Mo         21.511248293711159        1.013554017257464       10.000008917160937        0.191567068564034       -0.325130538125671        0.000000000000000
Se         21.515228961694490        2.923379729234896        8.330515702733337       -0.048420579019873        0.085706733716846       -0.000939995735568
Se         21.515228961694490        2.923379729234896       11.669499476039515       -0.048420579019873        0.085706733716846        0.000939995735568
Mo         19.851527499682923        3.888268155123129       10.000008917160937        0.191633145944789       -0.325066517628363        0.000000000000000
Se         19.855516134313319        5.798093867100561        8.330515702733337       -0.048513910106310        0.085709047710725       -0.000961078790907
Se         19.855516134313319        5.798093867100561       11.669499476039515       -0.048513910106310        0.085709047710725        0.000961078790907
Mo         24.822550624016525        1.027628427071767       10.000008917160937        0.034883457719706       -0.076966264616559        0.000000000000000
Se         24.821132560839008        2.946833538193374        8.330515702733337        0.074363278613579       -0.137070712950283        0.003234963442265
Se         24.821132560839008        2.946833538193374       11.669499476039515        0.074363278613579       -0.137070712950283       -0.003234963442265
Mo         23.162840452184376        3.902342564937432       10.000008917160937        0.034708879737088       -0.076979634358969        0.000000000000000
Se         23.161409111261754        5.821547676059038        8.330515702733337        0.074387189883658       -0.137048087232359        0.003261445816654
Se         23.161409111261754        5.821547676059038       11.669499476039515        0.074387189883658       -0.137048087232359       -0.003261445816654
