# total energy = -9527.623351360431 eV 

 CRYSTAL
 PRIMVEC
        7.037104892651799        0.000000000000000        0.000000000000000
       -3.518552446325899        6.094308764658774        0.000000000000000
        0.000000000000000        0.000000000000000       19.999937665154004
 PRIMCOORD
12 1
Se          3.406532292092222        6.126334629025233        8.241860065115745        0.361806055549127       -0.505802295067591        1.773802292048452
Se          0.009861095086073        6.109189426664776        8.555025307048535        0.903573214809017       -0.441014837344469       -2.039019414890598
Se          5.281366925828875        3.023335893399229        8.335373337192236       -0.017421288580592       -0.000435545070036        1.875010470757955
Se          1.718084529673812        3.032042199572417        8.230680216572788        0.159789247739823        0.324315240949115        1.810867588885234
Se          3.564783410628664        6.022858927552213       11.586082311935980        0.541748390198430        0.466366182946980        0.824513042842767
Se         -0.085517009786972        6.067797879396688       11.381180113934681       -0.496036983789521        1.701138256273048        4.521106951027264
Se          5.245227873652661        2.978935983789531       11.681962162387872        0.277541968460365        0.315759120027823        1.150459135255425
Se          1.682425408051278        3.082610131620524       11.582959244784622        0.484552117949230       -0.966119698015943        0.594226171818761
Mo          1.741836869817980        0.993347874699878        9.836185845884447       -1.641757059581598        1.032775063019948        0.503642053226714
Mo          5.309679309943481        0.983942784010849       10.178904113524418        0.236290142476356        0.337359995774005       -3.540276422593847
Mo         -0.056458692553745        4.107339975589182       10.143131694513110        0.101896977554030       -2.631487208472063       -3.973094836509928
Mo          3.560915817779664        3.992155938995769       10.142372390895193       -0.911982525674235        0.367145982089614       -3.501236774757767
