# total energy = -38121.99083936667 eV 

 CRYSTAL
 PRIMVEC
       13.277745107833699        0.000000000000000        0.000000000000000
       -6.638872553916849       11.498859207011680        0.000000000000000
        0.000000000000000        0.000000000000000       20.000015178772852
 PRIMCOORD
48 1
Mo          1.701102214431308        0.982124266812711       10.000007589386426       -0.934758138979447       -0.539682764996145        0.000000000000000
Se          1.661911621971027        2.875975523650908        8.272341918092385       -0.177442964149998       -0.102470076704626        0.516779367806748
Se          1.661911621971027        2.875975523650908       11.727678571778510       -0.177442964149998       -0.102470076704626       -0.516779367806748
Mo          0.041384075952096        3.856839732452886       10.000007589386426       -0.934739627028419       -0.539680193891835        0.000000000000000
Se          0.002194811266325        5.750689661516573        8.272341918092385       -0.177464304315767       -0.102455935630924        0.516770626052096
Se          0.002194811266325        5.750689661516573       11.727678571778510       -0.177464304315767       -0.102455935630924       -0.516770626052096
Mo         -1.618334062527116        6.731553870318550       10.000007589386426       -0.934724457512993       -0.539663481713823        0.000000000000000
Se         -1.657524654987398        8.625405127156748        8.272341918092385       -0.177461476101027       -0.102460563618681        0.516770626052096
Se         -1.657524654987398        8.625405127156748       11.727678571778510       -0.177461476101027       -0.102460563618681       -0.516770626052096
Mo         -3.278052201006329        9.606269335958725       10.000007589386426       -0.934746569010055       -0.539668109701580        0.000000000000000
Se         -3.317242793466610       11.500117937247902        8.272341918092385       -0.177463275874043       -0.102435109686017        0.516779367806748
Se         -3.317242793466610       11.500117937247902       11.727678571778510       -0.177463275874043       -0.102435109686017       -0.516779367806748
Mo          4.925514980751011        0.927263279576164       10.000007589386426       -0.015170543868019       -0.008794976511649        0.000000000000000
Se          4.891458892323928        2.824076801347919        8.337535646571849        0.514317021209500        0.296940950475856       -0.147126816125762
Se          4.891458892323928        2.824076801347919       11.662478204426492        0.514317021209500        0.296940950475856        0.147126816125762
Mo          3.265796842271798        3.801977417441828       10.000007589386426       -0.015201911340596       -0.008740469100287        0.000000000000000
Se          3.231740753844715        5.698792266988094        8.337535646571849        0.514350188455093        0.296925523849999       -0.147118074371109
Se          3.231740753844715        5.698792266988094       11.662478204426492        0.514350188455093        0.296925523849999        0.147118074371109
Mo          1.606078703792586        6.676692883082002       10.000007589386426       -0.015183913610429       -0.008751781959249        0.000000000000000
Se          1.572022615365503        8.573507732628270        8.337535646571849        0.514319078092948        0.296942236028011       -0.147127073236193
Se          1.572022615365503        8.573507732628270       11.662478204426492        0.514319078092948        0.296942236028011        0.147127073236193
Mo         -0.053639434686627        9.551408348722179       10.000007589386426       -0.015171315199312       -0.008773893456311        0.000000000000000
Se         -0.087696850888220       11.448217887170401        8.337535646571849        0.514320106534671        0.296977717267483       -0.147118074371109
Se         -0.087696850888220       11.448217887170401       11.662478204426492        0.514320106534671        0.296977717267483        0.147118074371109
Mo          8.241301205579292        0.925154773653039       10.000007589386426        0.358043758612975        0.206674620376469        0.000000000000000
Se          8.320881370883093        2.887577617326134        8.380433385466239       -0.408242770483758       -0.235701616699901       -0.320588168142004
Se          8.320881370883093        2.887577617326134       11.619577809983081       -0.408242770483758       -0.235701616699901        0.320588168142004
Mo          6.581583067100079        3.799870239293214       10.000007589386426        0.358045301275561        0.206717557818439        0.000000000000000
Se          6.661163232403880        5.762293082966309        8.380433385466239       -0.408245084477637       -0.235697760043437       -0.320588168142004
Se          6.661163232403880        5.762293082966309       11.619577809983081       -0.408245084477637       -0.235697760043437        0.320588168142004
Mo          4.921864928620867        6.674584377158879       10.000007589386426        0.358007506042210        0.206737869542484        0.000000000000000
Se          5.001445093924668        8.637007220831974        8.380433385466239       -0.408218344992818       -0.235721928423947       -0.320589967915020
Se          5.001445093924668        8.637007220831974       11.619577809983081       -0.408218344992818       -0.235721928423947        0.320589967915020
Mo          3.262146790141655        9.549299842799053       10.000007589386426        0.358032188643582        0.206709844505510        0.000000000000000
Se          3.341726955445456       11.511718703148615        8.380433385466239       -0.408250226686256       -0.235666392570861       -0.320589967915020
Se          3.341726955445456       11.511718703148615       11.619577809983081       -0.408250226686256       -0.235666392570861        0.320589967915020
Mo         11.660048377071758        0.982494715901219       10.000007589386426       -0.132365334953391       -0.076468755932663        0.000000000000000
Se         11.600907972586956        2.864827528858371        8.264810781067222        0.433523153607326        0.250277978361986        0.834549091404632
Se         11.600907972586956        2.864827528858371       11.735208381029162        0.433523153607326        0.250277978361986       -0.834549091404632
Mo         10.000336877465100        3.857210181541394       10.000007589386426       -0.132421899248200       -0.076435074466208        0.000000000000000
Se          9.941192489656766        5.739541666724035        8.264810781067222        0.433512612079657        0.250288519889655        0.834551148288080
Se          9.941192489656766        5.739541666724035       11.735208381029162        0.433512612079657        0.250288519889655       -0.834551148288080
Mo          8.340616083436867        6.731924319407058       10.000007589386426       -0.132405701291050       -0.076463099503182        0.000000000000000
Se          8.281474351177552        8.614255804589700        8.264810781067222        0.433508755423193        0.250303175184219        0.834549091404632
Se          8.281474351177552        8.614255804589700       11.735208381029162        0.433508755423193        0.250303175184219       -0.834549091404632
Mo          6.680897944957654        9.606638457272723       10.000007589386426       -0.132406472622343       -0.076397279232858        0.000000000000000
Se          6.621756212698341       11.488968614680854        8.264810781067222        0.433521610944740        0.250293919208705        0.834575830889451
Se          6.621756212698341       11.488968614680854       11.735208381029162        0.433521610944740        0.250293919208705       -0.834575830889451
