# total energy = -9519.630252458874 eV 

 CRYSTAL
 PRIMVEC
        8.099322384569499        0.000000000000000        0.000000000000000
       -4.049661192284749        7.014215668096800        0.000000000000000
        0.000000000000000        0.000000000000000       19.999964538468078
 PRIMCOORD
12 1
Se          4.024631046387475        6.987734123628211        8.665701519464536       -0.061408512439523        0.009205581869883       -1.057773653111190
Se         -0.039297912209931        6.989138546129697        8.726370303718392        0.066985751907781        0.052554143418323       -1.243669894010099
Se          6.039610436713499        3.502107312408167        8.728826018265394       -0.023158450736903       -0.137873668826152       -1.238119908247522
Se          1.990829640771952        3.491681054702510        8.701487565488518        0.043805703894677       -0.086999742074114       -1.239198486505375
Se          4.021905624405068        6.997956278409777       11.329177454478270       -0.005700138254254       -0.069960005373058        1.274051090973366
Se         -0.033314942764450        7.009574756370442       11.338784870690846       -0.009258289508228       -0.148597744901251        1.297932279131682
Se          6.057419226772690        3.488084145631523       11.323535466505179        0.080013794554659        0.047823568599198        1.330965827300673
Se          1.996538043188597        3.494282557052435       11.308698317828886       -0.079329109477028        0.024450173542017        1.381152497870770
Mo          1.987504868933086        1.139421582315860        9.978651083869797       -0.068170259663186        0.045536314205430       -0.238723949815768
Mo          6.044645785439985        1.141703161431593        9.968676768353200        0.109891569294118       -0.056636285730583       -0.381405326590332
Mo         -0.020220768265316        4.656872251049355       10.012340215328415       -0.000556901193447        0.063061732510558        0.299405353956552
Mo          4.018644027280802        4.644992974907907        9.986286315081731       -0.053115158378665        0.257435932759750       -0.184615830952757
