# total energy = -38122.49775202968 eV 

 CRYSTAL
 PRIMVEC
       26.555490215667398        0.000000000000000        0.000000000000000
       -3.319436276958425        5.749422964633285        0.000000000000000
        0.000000000000000        0.000000000000000       20.000028456517960
 PRIMCOORD
48 1
Mo          1.634851577441262        0.943875066480574        9.914141739548576        0.199858108631013        0.120261090084930        1.255744056958137
Se          1.640590218876867        2.857168925480173        8.240354502353103       -0.099082132555943       -0.008803461155870       -0.087366124438224
Se          1.629338657672489        2.863664398386925       11.579340931208304        0.098952291788311        0.007158468618626       -0.066701901992007
Mo         -0.024866561037951        3.818589204346238        9.905110217326229        0.310633880697182        0.176841839962427        1.501515660796789
Se         -0.010558462909749        5.747962412671424        8.248934581241786       -0.219011807295374       -0.151350369175046       -0.209632675884597
Se         -0.038948937499319        5.722304498025046       11.587921010096984        0.212140788138555        0.145350440158300       -0.177604686611068
Mo          4.954290509948708        0.943875066480574        9.905110217326229        0.020087523749587        0.022997499607126        0.576803597686014
Se          4.968595952527887        2.873245619256738        8.248934581241786       -0.023016011558155       -0.002135045018643       -0.050400843559082
Se          4.940205477938318        2.847587704610360       11.587921010096984        0.019061396019649        0.000052193417484       -0.047510665204727
Mo          3.294569715920474        3.818589204346238        9.914141739548576        0.016527572722595        0.008979838911505        0.136607399953703
Se          3.314743921837316        5.761596001348147        8.273044310808590       -0.128771702459944       -0.240053724964663       -0.421403225002578
Se          3.274621231670464        5.708668253799301       11.612030739663789        0.100312920188921        0.214491291698338       -0.368911559418976
Mo          8.273726786907133        0.943875066480574        9.914141739548576        0.003422654056862        0.041046394749677        0.974787404864270
Se          8.293898337274953        2.886881863482483        8.273044310808590       -0.022587665580185       -0.043833471821220       -0.048407723498326
Se          8.253775647108101        2.833951460384615       11.612030739663789        0.021656411599269        0.042505239334911       -0.052153051146035
Mo          6.614008648427920        3.818589204346238        9.939518165998669        0.001988749183430        0.002999707397942        0.109675596532117
Se          6.636227627091369        5.770194669079980        8.308092246795228       -0.082126985186671       -0.323666551331818       -0.604202570760644
Se          6.592010080333261        5.700069586067467       11.647081331199448        0.058102586518314        0.271054300956099       -0.508627681593346
Mo         11.593160408316535        0.943875066480574        9.939518165998669        0.003092010042655        0.068126808000355        1.243625156795113
Se         11.615379386979985        2.895480531214316        8.308092246795228       -0.021586220451619       -0.079556909318853       -0.049535924069353
Se         11.571169806868941        2.825355448201803       11.647081331199448        0.021414984904603        0.076711982400346       -0.057766800295488
Mo          9.933444925386345        3.818589204346238        9.976409053006273        0.000983190287969        0.000304675860681        0.116186918196031
Se          9.953504942695261        5.772119942120616        8.347410305608545       -0.017607436532603       -0.345994278266308       -0.682016785578490
Se          9.913607974195241        5.698146968575853       11.686399390012765        0.012044852358910        0.279133739138402       -0.564420645110399
Mo         14.912601996373002        0.943875066480574        9.976409053006273        0.002568018984370        0.073310411398822        1.277538022637967
Se         14.932662013681918        2.897403148705930        8.347410305608545       -0.015633856864599       -0.099768103185729       -0.042630195004355
Se         14.892762389632876        2.823430175161167       11.686399390012765        0.014741940779619        0.095177139330612       -0.051212026968743
Mo         13.252881202344769        3.818589204346238       10.017787817860325       -0.000237827148633       -0.002591930254449        0.097352550686915
Se         13.266982167649289        5.767002699156057        8.383512494556744        0.052772430174204       -0.296419016301020       -0.623174492350321
Se         13.239000647609041        5.703261555991391       11.722498923411944       -0.037326006813770        0.238028208989606       -0.521104479476259
Mo         18.232035617782408        0.943875066480574       10.017787817860325        0.002275941534806        0.052758546210932        1.061229731524076
Se         18.246136583086923        2.892288561290393        8.383512494556744       -0.006561972418812       -0.100759006786626       -0.029921997733583
Se         18.218155063046677        2.828547418125726       11.722498923411944        0.004519230044881        0.095657421615634       -0.033958888609995
Mo         16.572314823754173        3.818589204346238       10.055788724358946       -0.000688798844526       -0.003993953434442        0.064864590852409
Se         16.577803843581748        5.755820182226239        8.409526252772013        0.107443106660142       -0.187083576869055       -0.442713051740921
Se         16.567064803338535        5.714444072921209       11.748510026078190       -0.084034744584351        0.154264715909911       -0.382520414529380
Mo         21.551469239191810        0.943875066480574       10.055788724358946        0.002453604842596        0.022539843040028        0.628142122986786
Se         21.556958259019385        2.881106044360576        8.409526252772013       -0.010084642433315       -0.090764867225007       -0.020526411255225
Se         21.546219218776173        2.839729935055544       11.748510026078190        0.009284771882617        0.086344110475181       -0.020303496511588
Mo         19.891756411810640        3.818589204346238       10.083170090320321        0.000871090140073       -0.001784603501253        0.002292910823249
Se         19.887597822042867        5.740699486097439        8.420498981329127        0.121928451229668       -0.052629990995455       -0.195380016255084
Se         19.896138067696228        5.729564769050010       11.759490721282367       -0.105510664661090        0.046246710326156       -0.173454410034606
Mo         24.870910827248277        0.943875066480574       10.083170090320321        0.001790259930734       -0.000679028648150        0.153474358445158
Se         24.866752237480505        2.865985348231775        8.420498981329127       -0.743605018209250       -0.466040681141392       -0.853055900224713
Se         24.875292483133862        2.854850631184345       11.759490721282367        0.414107202303392        0.281121459880109       -0.592330753721767
Mo         23.211190033220042        3.818589204346238       10.094719073015114       -0.002689632218211        0.001291465694683        0.015573178802894
Se         23.198199087406540        5.724519225909033        8.414346074246156       -0.542465214079931       -0.306758712281841       -0.699797514541556
Se         23.224409356249403        5.745745029238416       11.753329847552333        0.327592370502057        0.179911481397589       -0.536666345420191
