# total energy = -38122.632658512506 eV 

 CRYSTAL
 PRIMVEC
       13.277745107833699        0.000000000000000        0.000000000000000
       -6.638872553916849       11.498859207011680        0.000000000000000
        0.000000000000000        0.000000000000000       20.000015178772852
 PRIMCOORD
48 1
Mo          1.669384336917715        0.884064135867827       10.000007589386426        0.202552368836981       -0.377080986252114        0.000000000000000
Se          1.683531774330112        2.776294180028358        8.330514374958828       -0.210189319967613        0.362171152361082        0.004348251608297
Se          1.683531774330112        2.776294180028358       11.669498148265003       -0.210189319967613        0.362171152361082       -0.004348251608297
Mo          0.009666198438503        3.758778273733491       10.000007589386426        0.202501975192514       -0.377056817871604        0.000000000000000
Se          0.023813635850900        5.651009645668533        8.330514374958828       -0.210188291525889        0.362170638140220        0.004352108264761
Se          0.023813635850900        5.651009645668533       11.669498148265003       -0.210188291525889        0.362170638140220       -0.004352108264761
Mo         -1.650051940040709        6.633493739373666       10.000007589386426        0.202550311953534       -0.377038305920576        0.000000000000000
Se         -1.635904502628313        8.525723783534197        8.330514374958828       -0.210186748863303        0.362173980575823        0.004350051381313
Se         -1.635904502628313        8.525723783534197       11.669498148265003       -0.210186748863303        0.362173980575823       -0.004350051381313
Mo         -3.309770078519922        9.508209205013841       10.000007589386426        0.202545683965777       -0.377050390110830        0.000000000000000
Se         -3.295622641107525       11.400437921399861        8.330514374958828       -0.210187777305027        0.362206633600554        0.004364963786309
Se         -3.295622641107525       11.400437921399861       11.669498148265003       -0.210187777305027        0.362206633600554       -0.004364963786309
Mo          4.920818642306370        1.001848357170398       10.000007589386426        0.210785559056996       -0.402629792665598        0.000000000000000
Se          4.916241803567699        2.926509293756813        8.330514374958828        0.082677458619344       -0.123059480015436        0.007667290161484
Se          4.916241803567699        2.926509293756813       11.669498148265003        0.082677458619344       -0.123059480015436       -0.007667290161484
Mo          3.261100503827157        3.876562495036062       10.000007589386426        0.210798928799405       -0.402600482076469        0.000000000000000
Se          3.256523665088487        5.801224759396988        8.330514374958828        0.082676430177620       -0.123058708684143        0.007665747498898
Se          3.256523665088487        5.801224759396988       11.669498148265003        0.082676430177620       -0.123058708684143       -0.007665747498898
Mo          1.601382365347945        6.751277960676237       10.000007589386426        0.210800728572422       -0.402594054315695        0.000000000000000
Se          1.596805526609275        8.675938897262652        8.330514374958828        0.082676687288051       -0.123055623358971        0.007664719057175
Se          1.596805526609275        8.675938897262652       11.669498148265003        0.082676687288051       -0.123055623358971       -0.007664719057175
Mo         -0.058335773131267        9.625992098541902       10.000007589386426        0.210803556787162       -0.402535176027007        0.000000000000000
Se         -0.062912611869938       11.550658346226360        8.330514374958828        0.082678487061068       -0.123075163751724        0.007684773670789
Se         -0.062912611869938       11.550658346226360       11.669498148265003        0.082678487061068       -0.123075163751724       -0.007684773670789
Mo          8.278539969508723        0.935535314778344       10.000007589386426       -0.248330366847508        0.454113585359859        0.000000000000000
Se          8.270127190208399        2.866843090565740        8.330514374958828        0.118490884767811       -0.203947192924908       -0.000390036523757
Se          8.270127190208399        2.866843090565740       11.669498148265003        0.118490884767811       -0.203947192924908        0.000390036523757
Mo          6.618821831029510        3.810250780418519       10.000007589386426       -0.248340137043884        0.454142638838557        0.000000000000000
Se          6.610409051729186        5.741558556205915        8.330514374958828        0.118494484313844       -0.203947192924908       -0.000391322075912
Se          6.610409051729186        5.741558556205915       11.669498148265003        0.118494484313844       -0.203947192924908        0.000391322075912
Mo          4.959103692550297        6.684964918284184       10.000007589386426       -0.248342708148194        0.454157808353983        0.000000000000000
Se          4.950690913249973        8.616272694071581        8.330514374958828        0.118495512755568       -0.203937679838962       -0.000389265192465
Se          4.950690913249973        8.616272694071581       11.669498148265003        0.118495512755568       -0.203937679838962        0.000389265192465
Mo          3.299385554071085        9.559680383924359       10.000007589386426       -0.248341679706470        0.454166550108636        0.000000000000000
Se          3.290972774770762       11.490988159711755        8.330514374958828        0.118483171454882       -0.203931766299050       -0.000380523437812
Se          3.290972774770762       11.490988159711755       11.669498148265003        0.118483171454882       -0.203931766299050        0.000380523437812
Mo         11.620967989895872        0.895707390552886       10.000007589386426        0.070011170348818       -0.140120813992692        0.000000000000000
Se         11.635788608985235        2.786770320918439        8.330514374958828       -0.108431182046299        0.197610963464473       -0.008572318878443
Se         11.635788608985235        2.786770320918439       11.669498148265003       -0.108431182046299        0.197610963464473        0.008572318878443
Mo          9.961252506965680        3.770421528418550       10.000007589386426        0.069946121409787       -0.140072220121242        0.000000000000000
Se          9.976074453829554        5.661484458784103        8.330514374958828       -0.108475919261285        0.197614305900076       -0.008574632872321
Se          9.976074453829554        5.661484458784103       11.669498148265003       -0.108475919261285        0.197614305900076        0.008574632872321
Mo          8.301534368486468        6.645136994058726       10.000007589386426        0.069980317097104       -0.140095360060027        0.000000000000000
Se          8.316356315350342        8.536198596649767        8.330514374958828       -0.108477204813439        0.197624333206883       -0.008575661314045
Se          8.316356315350342        8.536198596649767       11.669498148265003       -0.108477204813439        0.197624333206883        0.008575661314045
Mo          6.641816230007256        9.519851131924391       10.000007589386426        0.069977231771932       -0.140038795765217        0.000000000000000
Se          6.656638176871130       11.410918045613474        8.330514374958828       -0.108485689457661        0.197607106808009       -0.008546864945778
Se          6.656638176871130       11.410918045613474       11.669498148265003       -0.108485689457661        0.197607106808009        0.008546864945778
