# total energy = -9480.014560312315 eV 

 CRYSTAL
 PRIMVEC
        5.709346257185899        0.000000000000000        0.000000000000000
       -2.854673128592950        4.944436592379419        0.000000000000000
        0.000000000000000        0.000000000000000       19.999925579116063
 PRIMCOORD
12 1
Se          2.817514419412681        4.889492127738764        8.547504530795313       -1.000717763157290        2.222719932709158      -12.665516682122522
Se         -0.029536731926926        4.960675685938732        8.730874459210481        3.397990995882952        1.657736472865400      -18.457501981405180
Se          4.290235148042152        2.505977660608449        8.882720803201222       -2.103858808920773       -8.999588592148360      -31.267120318322856
Se          1.350679455839743        2.489664345547792        8.750939385696736        2.356035804925786       -1.933976434103413      -20.161770814285525
Se          2.823477260643686        4.968873736229425       11.195566695163969        5.479152095959091       -6.928116955773160       29.047623007755281
Se         -0.036990854400307        4.975686699118125       11.468313584562251       -0.818238776996193       -2.837777191643825       16.111529478746938
Se          4.332731525038264        2.423938351435068       11.297318664159535       -2.401624055438268        5.442848103108363       26.994049342699661
Se          1.440889410441783        2.420608089763252       11.351770983152820       -0.759928702360099        2.614943180681886       16.908877519007245
Mo          1.409814009698546        0.781245817252167       10.035414404207401        0.778500817229642        1.973069046688269       -4.941954046167688
Mo          4.293900548339265        0.815352880857970       10.167026825062678       -8.055728486802705       -4.174532888739154      -16.628041708815925
Mo         -0.074049079086450        3.287054481211404        9.988502418815981       11.503685038285134        8.155498903982313       11.062189661545213
Mo          2.886655173521828        3.271505076679958        9.993391902950636       -8.375268415717708        2.807176165262091        3.997636541365364
