# total energy = -38122.654163542815 eV 

 CRYSTAL
 PRIMVEC
       53.110927513609894        0.000000000000000        0.000000000000000
       -1.659716484800309        2.874735173529163        0.000000000000000
        0.000000000000000        0.000000000000000       19.999981973800079
 PRIMCOORD
48 1
Mo          1.651409935737181        0.914750748937909        9.999996297992791       -1.001459012529731       -0.325328770267936        0.000000000000000
Se          1.596413570296838        2.818007391851876        8.309146187484004        0.309834010146484        0.005977817519684        0.215634661784791
Se          1.596413570296838        2.818007391851876       11.690846408501578        0.309834010146484        0.005977817519684       -0.215634661784791
Mo          4.948323872072029        0.885948692947278        9.999996297992791       -0.636059324487157       -0.069650187303759        0.000000000000000
Se          4.906371550429028        2.791744038196396        8.317787335390467        0.288276586063132        0.041035596111577        0.104360866813863
Se          4.906371550429028        2.791744038196396       11.682210571687865        0.288276586063132        0.041035596111577       -0.104360866813863
Mo          8.246379693348418        0.868172465508473        9.999996297992791       -0.365956332125589       -0.051943763255238        0.000000000000000
Se          8.225469921186310        2.778545972709264        8.328850341591552        0.140829667450832        0.038023547412949       -0.024030055097838
Se          8.225469921186310        2.778545972709264       11.671147565486780        0.140829667450832        0.038023547412949        0.024030055097838
Mo         11.549629763335640        0.864805232704110        9.999996297992791       -0.025825200126760       -0.044699419752674        0.000000000000000
Se         11.553777726774452        2.780930653354625        8.340226702264967       -0.037144743959948        0.027557610210529       -0.156335226210385
Se         11.553777726774452        2.780930653354625       11.659765893720614       -0.037144743959948        0.027557610210529        0.156335226210385
Mo         14.861170449107737        0.876489636757104        9.999996297992791        0.324002594665075       -0.027830404377771        0.000000000000000
Se         14.889600728605773        2.798446637248613        8.349754802660909       -0.210600439546709        0.011131596108160       -0.266316527044906
Se         14.889600728605773        2.798446637248613       11.650248415510173       -0.210600439546709        0.011131596108160        0.266316527044906
Mo         18.182499478820588        0.900995018711884        9.999996297992791        0.621792266673511        0.001999547821531        0.000000000000000
Se         18.229805381956961        2.827758558143375        8.355618249058411       -0.343967476739096       -0.007294737147031       -0.329519413182058
Se         18.229805381956961        2.827758558143375       11.644379658019920       -0.343967476739096       -0.007294737147031        0.329519413182058
Mo         21.513245075981608        0.933668861318257        9.999996297992791        0.795422283132459        0.030477099154013        0.000000000000000
Se         21.570466789284772        2.863284457557228        8.356701711979689       -0.410234090771498       -0.023609422432797       -0.328964054651197
Se         21.570466789284772        2.863284457557228       11.643296195098642       -0.410234090771498       -0.023609422432797        0.328964054651197
Mo         24.851277492397493        0.968281252778876        9.999996297992791        0.824253104197073        0.060328391519084        0.000000000000000
Se         24.907527275727155        2.898268625510443        8.352803369900190       -0.396686685054093       -0.035228242807615       -0.262959436147938
Se         24.907527275727155        2.898268625510443       11.647199848270894       -0.396686685054093       -0.035228242807615        0.262959436147938
Mo         28.193027673739333        0.998251749174806        9.999996297992791        0.692830593193991        0.073161030238438        0.000000000000000
Se         28.237635541758006        2.926040329507310        8.344656153619603       -0.308608621832556       -0.040651730238162       -0.145167634641891
Se         28.237635541758006        2.926040329507310       11.655336442365979       -0.308608621832556       -0.040651730238162        0.145167634641891
Mo         31.534267990177035        1.017870925798334        9.999996297992791        0.427429379283282        0.071912759096155        0.000000000000000
Se         31.558757438853561        2.941325654445727        8.333816213314075       -0.164648634884857       -0.039564667336088       -0.002484458094310
Se         31.558757438853561        2.941325654445727       11.666176382671507       -0.164648634884857       -0.039564667336088        0.002484458094310
Mo         34.870845167179048        1.023399773352500        9.999996297992791        0.084396756071135        0.051293530975355        0.000000000000000
Se         34.870574301448727        2.941208810405197        8.322349564063886        0.006335201018711       -0.032347063318343        0.133782013427948
Se         34.870574301448727        2.941208810405197       11.677648343014447        0.006335201018711       -0.032347063318343       -0.133782013427948
Mo         38.199487571610526        1.013797317658040        9.999996297992791       -0.264413395634984        0.026609129830739        0.000000000000000
Se         38.174525435679129        2.925711041756725        8.312433753897096        0.172804177754723       -0.019379184512308        0.237038848051294
Se         38.174525435679129        2.925711041756725       11.687569464273988        0.172804177754723       -0.019379184512308       -0.237038848051294
Mo         41.518453165049024        0.990885263528668        9.999996297992791       -0.562424439724471       -0.001399966296545        0.000000000000000
Se         41.473574431300023        2.897785316070070        8.305959531833187        0.305192909757330       -0.002451547959148        0.290575153315862
Se         41.473574431300023        2.897785316070070       11.694038375245146        0.305192909757330       -0.002451547959148       -0.290575153315862
Mo         44.827816302793060        0.959024018113254        9.999996297992791       -0.743564137650728       -0.030155711115321        0.000000000000000
Se         44.771593074927154        2.862748037189341        8.304153760297723        0.381888951310957        0.016058603296535        0.289080570380726
Se         44.771593074927154        2.862748037189341       11.695838835687857        0.381888951310957        0.016058603296535       -0.289080570380726
Mo         48.129515533696889        0.924273538241099        9.999996297992791       -0.787004230512589       -0.037086637002552        0.000000000000000
Se         48.072654974700818        2.827264626517498        8.307372282505050        0.389028907978554        0.034068160543150        0.232364837526978
Se         48.072654974700818        2.827264626517498       11.692630935666035        0.389028907978554        0.034068160543150       -0.232364837526978
Mo         51.426902157286605        0.893262067665902        9.999996297992791       -0.621543897997209       -0.018162023732171        0.000000000000000
Se         51.380265451836905        2.798090794034272        8.314988389510500        0.496761778094381        0.171910976117588        0.283637028336564
Se         51.380265451836905        2.798090794034272       11.685009517567831        0.496761778094381        0.171910976117588       -0.283637028336564
