# total energy = -38122.67627266611 eV 

 CRYSTAL
 PRIMVEC
       53.110927513609894        0.000000000000000        0.000000000000000
       -1.659716484800309        2.874735173529163        0.000000000000000
        0.000000000000000        0.000000000000000       19.999981973800079
 PRIMCOORD
48 1
Mo          1.650278672981141        0.952783484130405        9.999996297992791        0.299237203734708        0.172764839858787        0.000000000000000
Se          1.601899929108993        2.841323089030351        8.308014924727964        0.288598745433118        0.166622471663292        0.100374112471488
Se          1.601899929108993        2.841323089030351       11.691988293443121        0.288598745433118        0.166622471663292       -0.100374112471488
Mo          4.914407233761837        0.920853194509222        9.999996297992791       -0.270606157474946       -0.156234438921451        0.000000000000000
Se          4.879598331869417        2.817231972310177        8.317835135225229        0.204390194197442        0.118004688942877        0.055604244460733
Se          4.879598331869417        2.817231972310177       11.682168082945854        0.204390194197442        0.118004688942877       -0.055604244460733
Mo          8.196837820163724        0.899486668370497        9.999996297992791       -0.033720033019638       -0.019468401831849        0.000000000000000
Se          8.191627638174637        2.812956542645332        8.333470992285235        0.089552334432627        0.051703107891865       -0.053181492869852
Se          8.191627638174637        2.812956542645332       11.666526914793096        0.089552334432627        0.051703107891865        0.053181492869852
Mo         11.514549995712901        0.898493494025993        9.999996297992791        0.217057510909691        0.125318195151368        0.000000000000000
Se         11.541386947385528        2.830461904353817        8.347747209600895       -0.065644663899924       -0.037899877295660       -0.141225874624933
Se         11.541386947385528        2.830461904353817       11.652250697477436       -0.065644663899924       -0.037899877295660        0.141225874624933
Mo         14.868345735414826        0.918330425452326        9.999996297992791        0.369881637074966        0.213551295962769        0.000000000000000
Se         14.914955885400769        2.861717685195577        8.354115209809777       -0.184806864002956       -0.106698257741668       -0.168536144600884
Se         14.914955885400769        2.861717685195577       11.645888008361306       -0.184806864002956       -0.106698257741668        0.168536144600884
Mo         18.242435160519701        0.949888938580913        9.999996297992791        0.363643880909587        0.209949950156394        0.000000000000000
Se         18.287489160329493        2.892373312556433        8.349643269713130       -0.218108578351432       -0.125924975768420       -0.117916242954629
Se         18.287489160329493        2.892373312556433       11.650359948457952       -0.218108578351432       -0.125924975768420        0.117916242954629
Mo         21.611755224333852        0.978690994571544        9.999996297992791        0.191006824934985        0.110277749161411        0.000000000000000
Se         21.634608856442956        2.908365012830781        8.336386782205734       -0.155288015425109       -0.089655435715440       -0.011653273172566
Se         21.634608856442956        2.908365012830781       11.663611124872599       -0.155288015425109       -0.089655435715440        0.011653273172566
Mo         24.953388561635158        0.991506661380578        9.999996297992791       -0.081335599280194       -0.046959163330330        0.000000000000000
Se         24.943616150972655        2.902342233650737        8.320437570673397       -0.023387793241314       -0.013502925612851        0.098022580469981
Se         24.943616150972655        2.902342233650737       11.679560336404935       -0.023387793241314       -0.013502925612851       -0.098022580469981
Mo         28.257153807619265        0.982467181517761        9.999996297992791       -0.323264173507374       -0.186636718940057        0.000000000000000
Se         28.219296338487560        2.877082676525264        8.309103698741993        0.123437946569800        0.071266897693598        0.157768102642093
Se         28.219296338487560        2.877082676525264       11.690888897243587        0.123437946569800        0.071266897693598       -0.157768102642093
Mo         31.530247492964254        0.955709896236405        9.999996297992791       -0.406618603891421       -0.234761363853902        0.000000000000000
Se         31.481725349587823        2.844169834745081        8.307595348400605        0.218385229175139        0.126084641346042        0.143461449822079
Se         31.481725349587823        2.844169834745081       11.692397247584974        0.218385229175139        0.126084641346042       -0.143461449822079
Mo         34.793935233046589        0.923519363070406        9.999996297992791       -0.298678245657814       -0.172441909157509        0.000000000000000
Se         34.757065627166639        2.818713767187807        8.316602961706913        0.211171738924289        0.121920223695878        0.065150497651630
Se         34.757065627166639        2.818713767187807       11.683389634278667        0.211171738924289        0.121920223695878       -0.065150497651630
Mo         38.073795250556820        0.900676353146802        9.999996297992791       -0.061078639756609       -0.035263724047087        0.000000000000000
Se         38.065563056792207        2.812398877906439        8.331994508500358        0.102228135789098        0.059021499198544       -0.042828684257051
Se         38.065563056792207        2.812398877906439       11.668008709670726        0.102228135789098        0.059021499198544        0.042828684257051
Mo         41.388002104890099        0.897654341371278        9.999996297992791        0.196634972268571        0.113527367898241        0.000000000000000
Se         41.412225998929053        2.828119712450467        8.346695613236125       -0.052325315134774       -0.030209961416252       -0.135069622466166
Se         41.412225998929053        2.828119712450467       11.653296982749456       -0.052325315134774       -0.030209961416252        0.135069622466166
Mo         44.738945787784537        0.915850145137440        9.999996297992791        0.360182660288083        0.207951430776588        0.000000000000000
Se         44.784562763425981        2.858663806863544        8.353971810305490       -0.178427439990121       -0.103015150818249       -0.168707123037468
Se         44.784562763425981        2.858663806863544       11.646026096772843       -0.178427439990121       -0.103015150818249        0.168707123037468
Mo         48.112174815863696        0.946904104454648        9.999996297992791        0.372157835720204        0.214865387375376        0.000000000000000
Se         48.158301656409265        2.890015187374829        8.350477111275096       -0.223230218136039       -0.128882002834824       -0.125752968890111
Se         48.158301656409265        2.890015187374829       11.649520795803237       -0.223230218136039       -0.128882002834824        0.125752968890111
Mo         51.482981985648223        0.976571868563751        9.999996297992791        0.058031624039371        0.033504574478499        0.000000000000000
Se         51.508501786318519        2.907775481535380        8.337815466155851       -0.612811913541144       -0.353807092931712       -0.290965189839620
Se         51.508501786318519        2.907775481535380       11.662177129829733       -0.612811913541144       -0.353807092931712        0.290965189839620
