# total energy = -38122.920305691136 eV 

 CRYSTAL
 PRIMVEC
       13.277745107833699        0.000000000000000        0.000000000000000
       -6.638872553916849       11.498859207011680        0.000000000000000
        0.000000000000000        0.000000000000000       20.000015178772852
 PRIMCOORD
48 1
Mo          1.634851577441262        0.943875066480574       10.000007589386426        0.003512642707696        0.002028087079366        0.000000000000000
Se          1.634964438274678        2.860416661933549        8.330514374958828       -0.001747579599195       -0.001044639680967       -0.001575572720887
Se          1.634964438274678        2.860416661933549       11.669498148265003       -0.001747579599195       -0.001044639680967        0.001575572720887
Mo         -0.024865233263440        3.818589204346238       10.000007589386426        0.003511100045110        0.002041199711345        0.000000000000000
Se         -0.024753700204534        5.735132127573724        8.330514374958828       -0.001770719537981       -0.001026641950800       -0.001582771812954
Se         -0.024753700204534        5.735132127573724       11.669498148265003       -0.001770719537981       -0.001026641950800        0.001582771812954
Mo         -1.684584699517163        6.693304669986414       10.000007589386426        0.003553523266217        0.002051741239014        0.000000000000000
Se         -1.684471838683747        8.609846265439389        8.330514374958828       -0.001774319084015       -0.001020214190026       -0.001582771812954
Se         -1.684471838683747        8.609846265439389       11.669498148265003       -0.001774319084015       -0.001020214190026        0.001582771812954
Mo         -3.344301510221865        9.568020135626588       10.000007589386426        0.003523184235365        0.002020116656007        0.000000000000000
Se         -3.344189977162959       11.484557747756032        8.330514374958828       -0.001778432850910       -0.000991160711328       -0.001575572720887
Se         -3.344189977162959       11.484557747756032       11.669498148265003       -0.001778432850910       -0.000991160711328        0.001575572720887
Mo          4.954287854399686        0.943875066480574       10.000007589386426        0.003546324174151        0.002007004024028        0.000000000000000
Se          4.954400715233103        2.860416661933549        8.330514374958828       -0.001778947071772       -0.001027156171662       -0.001584828696401
Se          4.954400715233103        2.860416661933549       11.669498148265003       -0.001778947071772       -0.001027156171662        0.001584828696401
Mo          3.294569715920474        3.818589204346238       10.000007589386426        0.003511357155541        0.002067682085733        0.000000000000000
Se          3.294682576753890        5.735132127573724        8.330514374958828       -0.001745779826179       -0.001041554355795       -0.001574030058301
Se          3.294682576753890        5.735132127573724       11.669498148265003       -0.001745779826179       -0.001041554355795        0.001574030058301
Mo          1.634851577441262        6.693304669986414       10.000007589386426        0.003532954431741        0.002051741239014        0.000000000000000
Se          1.634964438274678        8.609846265439389        8.330514374958828       -0.001772262200567       -0.001023042404767       -0.001584571585970
Se          1.634964438274678        8.609846265439389       11.669498148265003       -0.001772262200567       -0.001023042404767        0.001584571585970
Mo         -0.024865233263440        9.568020135626588       10.000007589386426        0.003543495959410        0.002033743508847        0.000000000000000
Se         -0.024753700204534       11.484557747756032        8.330514374958828       -0.001775090415308       -0.000991160711328       -0.001574030058301
Se         -0.024753700204534       11.484557747756032       11.669498148265003       -0.001775090415308       -0.000991160711328        0.001574030058301
Mo          8.273725459132622        0.943875066480574       10.000007589386426        0.003547095505444        0.002004690030150        0.000000000000000
Se          8.273836992191526        2.860416661933549        8.330514374958828       -0.001778175740479       -0.001028184613386       -0.001584057365109
Se          8.273836992191526        2.860416661933549       11.669498148265003       -0.001778175740479       -0.001028184613386        0.001584057365109
Mo          6.614007320653410        3.818589204346238       10.000007589386426        0.003550180830615        0.002049684355567        0.000000000000000
Se          6.614118853712315        5.735132127573724        8.330514374958828       -0.001779718403065       -0.001025870619507       -0.001584057365109
Se          6.614118853712315        5.735132127573724       11.669498148265003       -0.001779718403065       -0.001025870619507        0.001584057365109
Mo          4.954287854399686        6.693304669986414       10.000007589386426        0.003509814492955        0.002069481858750        0.000000000000000
Se          4.954400715233103        8.609846265439389        8.330514374958828       -0.001750922034798       -0.001041297245364       -0.001578400935628
Se          4.954400715233103        8.609846265439389       11.669498148265003       -0.001750922034798       -0.001041297245364        0.001578400935628
Mo          3.294569715920474        9.568020135626588       10.000007589386426        0.003537325309067        0.002042228153069        0.000000000000000
Se          3.294682576753890       11.484557747756032        8.330514374958828       -0.001777404409186       -0.000995788699085       -0.001578400935628
Se          3.294682576753890       11.484557747756032       11.669498148265003       -0.001777404409186       -0.000995788699085        0.001578400935628
Mo         11.593157752767514        0.943875066480574       10.000007589386426        0.003559436806129        0.002014717336957        0.000000000000000
Se         11.593267958051909        2.860416661933549        8.330514374958828       -0.001747322488764       -0.001029470165540       -0.001582514702523
Se         11.593267958051909        2.860416661933549       11.669498148265003       -0.001747322488764       -0.001029470165540        0.001582514702523
Mo          9.933443597611834        3.818589204346238       10.000007589386426        0.003529611996139        0.002059197441512        0.000000000000000
Se          9.933555130670738        5.735132127573724        8.330514374958828       -0.001776375967462       -0.001025613509076       -0.001583800254678
Se          9.933555130670738        5.735132127573724       11.669498148265003       -0.001776375967462       -0.001025613509076        0.001583800254678
Mo          8.273725459132622        6.693304669986414       10.000007589386426        0.003548123947167        0.002027058637643        0.000000000000000
Se          8.273836992191526        8.609846265439389        8.330514374958828       -0.001765320218931       -0.000998359803395       -0.001582514702523
Se          8.273836992191526        8.609846265439389       11.669498148265003       -0.001765320218931       -0.000998359803395        0.001582514702523
Mo          6.614007320653410        9.568020135626588       10.000007589386426        0.003524469787520        0.002075138288231        0.000000000000000
Se          6.614118853712315       11.484557747756032        8.330514374958828       -0.001751950476522       -0.001011472435374       -0.001558089211582
Se          6.614118853712315       11.484557747756032       11.669498148265003       -0.001751950476522       -0.001011472435374        0.001558089211582
