# total energy = -9526.335226045592 eV 

 CRYSTAL
 PRIMVEC
        6.107710890233100        0.000000000000000        0.000000000000000
       -3.053855445116550        5.289430323714121        0.000000000000000
        0.000000000000000        0.000000000000000       20.000047449589029
 PRIMCOORD
12 1
Se          2.963788697244817        5.312216360732313        8.317612616874664        0.651502919632850        0.460628249459376       -0.571908729301508
Se         -0.002309936258686        5.249736310638495        8.107519577672425       -0.433269128501543        0.502919058694871        1.470137132471851
Se          4.517073635378804        2.635186522097207        8.173951927483314        0.502864037062647       -0.497263914766034       -0.023164107166384
Se          1.503930969514369        2.640630324813672        8.138331757571473       -0.041492224236952       -0.543940770843177        1.136439674786787
Se          3.009877483622515        5.248663796606170       11.688986574186318        0.811172096801418       -1.128323469812857        2.872443391049374
Se          0.006432030338504        5.298899107907249       11.655290943975990       -1.102275869163322       -1.877808860688460        3.230109454439277
Se          4.619422989850795        2.578696304073441       11.668532461186016       -0.377823264066279        2.927900054122739        3.241178829823147
Se          1.546130365597168        2.614924801989948       11.917221957816905       -0.277661781921190        0.455003958782254       -1.412348734900162
Mo          1.483541598249504        0.858891957770317       10.118247019870223        0.664451258046133        1.630190946845126       -3.825371009963491
Mo          4.563261977444014        0.904834769857740       10.177871715122855       -0.341130520243948       -1.289703202678563       -7.728963497667459
Mo         -0.052338196160585        3.493818902154690        9.917933036574336        1.768158460978577        0.230511585540661        0.192139396383338
Mo          3.075535986463610        3.507508725344059        9.912664525160421       -1.824495984388391       -0.870114148876797        1.419308457155660
