# total energy = -9530.516495433072 eV 

 CRYSTAL
 PRIMVEC
        6.771563749103600        0.000000000000000        0.000000000000000
       -3.385781874551800        5.864343495817446        0.000000000000000
        0.000000000000000        0.000000000000000       19.999962507379962
 PRIMCOORD
12 1
Se          3.361044675019949        5.844285446836225        8.393878740360844       -0.033868899959161       -0.009652182688450       -0.864590388378178
Se         -0.028622045654711        5.840313924697377        8.377152300744182        0.179306243443123        0.169660231405015       -0.807692364228884
Se          5.055176839931060        2.914201372031351        8.353459953498819       -0.059677645018339       -0.068517101634544       -0.282159928910733
Se          1.653688323263214        2.927097138035144        8.372066179212231        0.209973861426473        0.010362835919607       -0.644663525059038
Se          3.353799778964784        5.860406508653716       11.627147393217083        0.232595979804406       -0.104373979445842        0.141945526721174
Se         -0.025272830224404        5.842396180550226       11.600485715267736       -0.063078187578139        0.064656588513767        0.394656798201709
Se          5.051793089525634        2.908297922754883       11.669743237824443        0.064420818248582        0.103330882427461       -0.357892577679574
Se          1.664415834554545        2.917156482451460       11.600852734022938        0.002957284176835       -0.001485069849191        0.240494669353749
Mo          1.674927332962278        0.961058248029778        9.960992621091767       -0.174177404566449        0.075016081997772        0.809459741331263
Mo          5.061679572599324        0.958646894178722        9.996168186142862       -0.182553033965212        0.265863498465565        0.191167261843900
Mo         -0.034117846793484        3.903945995571457        9.969465878811022       -0.125536996128110       -0.385970836512785        0.722223714771102
Mo          3.373105507213478        3.894471900730086        9.987728109085978       -0.050362019884008       -0.118890691487945        0.457051072033511
