# total energy = -9517.396950728184 eV 

 CRYSTAL
 PRIMVEC
        8.364863528117699        0.000000000000000        0.000000000000000
       -4.182431764058849        7.244180936938131        0.000000000000000
        0.000000000000000        0.000000000000000       19.999945357962428
 PRIMCOORD
12 1
Se          4.155564658892888        7.239651363337654        8.524863291738123       -0.025265727829004       -0.091545711603815        0.451997566513107
Se         -0.048500315222379        7.236427544933917        8.533337734978458        0.036840325209698        0.016743802595028        0.480258630862726
Se          6.248224316367266        3.608174681503688        8.475224518589567       -0.070411491289814        0.001470928775489        0.609083298071447
Se          2.055624224203636        3.614675016951389        8.501127991477089        0.074198985048200        0.036292422881335        0.657044677861636
Se          4.134625732509304        7.232855748207411       11.503919096751137        0.001715183684895        0.045888041274975       -0.500449513005556
Se         -0.046084542635459        7.225979830387299       11.525343185219352        0.019255000174157       -0.047176421644486       -0.555453661720442
Se          6.231037031276042        3.596909719790372       11.464705453017674        0.091558824235794       -0.009974599168867       -0.450562376087520
Se          2.052196303129814        3.595260168702628       11.541922344732082       -0.054925987143876       -0.003070155656024       -0.726482749059858
Mo          2.059380884414114        1.196824597930613       10.010537501617227        0.000504707775963        0.016433984525728        0.131669079906367
Mo          6.254400931596428        1.181172265296799       10.001758577344466       -0.043841699355011        0.039820492214888        0.026606815836860
Mo         -0.022167724835865        4.811246159517100       10.023129967172455       -0.022889770336556       -0.011283291262423        0.190346822458725
Mo          4.136853295666842        4.811301367616385        9.966683868084717       -0.006738607284878        0.006399992847311       -0.314058848747923
