# total energy = -38122.15745379279 eV 

 CRYSTAL
 PRIMVEC
       13.277745107833699        0.000000000000000        0.000000000000000
       -6.638872553916849       11.498859207011680        0.000000000000000
        0.000000000000000        0.000000000000000       20.000015178772852
 PRIMCOORD
48 1
Mo          1.569794609736409        0.991015044936916       10.000007589386426        1.154722283311076       -0.928865939233271        0.000000000000000
Se          1.561822651573665        2.906405459889042        8.326735528701136        0.272019750624331       -0.204268066742738        0.008817859340004
Se          1.561822651573665        2.906405459889042       11.673278322297204        0.272019750624331       -0.204268066742738       -0.008817859340004
Mo         -0.095508148335159        3.838402255596148       10.000007589386426        1.421308004977191        0.218748011993215        0.000000000000000
Se         -0.046590279808878        5.754941195500102        8.329252989173581        0.035020754689835       -0.058482852845696       -0.034739218767941
Se         -0.046590279808878        5.754941195500102       11.670758206275737        0.035020754689835       -0.058482852845696        0.034739218767941
Mo         -1.722517889515733        6.675049098237652       10.000007589386426        1.312039928478137        0.422894722612543        0.000000000000000
Se         -1.643167429202298        8.592736563093435        8.332454253519080       -0.099182405624015        0.008339119717567       -0.023899442998913
Se         -1.643167429202298        8.592736563093435       11.667558269704749       -0.099182405624015        0.008339119717567        0.023899442998913
Mo         -3.328965714622317        9.521591844308027       10.000007589386426        0.419811454324541        0.463717174176859        0.000000000000000
Se         -3.262134840171058       11.439807763419100        8.334603920452039       -1.176774902084445        0.291831137771074       -0.041042023872351
Se         -3.262134840171058       11.439807763419100       11.665408602771791       -1.176774902084445        0.291831137771074        0.041042023872351
Mo          4.883646267102479        0.963686789955973       10.000007589386426        2.303504801446248       -0.498824060861064        0.000000000000000
Se          4.932564135628760        2.880225729859926        8.329252989173581       -0.032097666200318       -0.242016505994567       -0.030488926233837
Se          4.932564135628760        2.880225729859926       11.670758206275737       -0.032097666200318       -0.242016505994567        0.030488926233837
Mo          3.256635198147393        3.800334960371988       10.000007589386426        0.204990032832858        0.379252540951953        0.000000000000000
Se          3.335986986235339        5.718022425227770        8.332454253519080       -0.149816448343973       -0.105590111784255        0.011290490354490
Se          3.335986986235339        5.718022425227770       11.667558269704749       -0.149816448343973       -0.105590111784255       -0.011290490354490
Mo          1.650188700815320        6.646877706442361       10.000007589386426        0.217105590560280        0.351963611141771        0.000000000000000
Se          1.717019575266580        8.565093625553434        8.334603920452039       -0.140188691146464        0.029782129659144        0.015262075181439
Se          1.717019575266580        8.565093625553434       11.665408602771791       -0.140188691146464        0.029782129659144       -0.015262075181439
Mo          0.035427679496722        9.518587090590124       10.000007589386426       -0.029069933765401        0.073863970156666        0.000000000000000
Se          0.053574373735598       11.436428577289156        8.334536203951989       -1.005593862480336        0.183470146872425        0.002797618599212
Se          0.053574373735598       11.436428577289156       11.665477647046352       -1.005593862480336        0.183470146872425       -0.002797618599212
Mo          8.235789613585030        0.925619494731814       10.000007589386426        1.720762981246917        0.062191927922640        0.000000000000000
Se          8.315141401672976        2.843308287362105        8.332454253519080       -0.154836786618784       -0.115400160277311       -0.019136472265487
Se          8.315141401672976        2.843308287362105       11.667558269704749       -0.154836786618784       -0.115400160277311        0.019136472265487
Mo          6.629343116252957        3.772162240802187       10.000007589386426        0.076347914030114        0.312075498883542        0.000000000000000
Se          6.696175318478728        5.690379487687770        8.334603920452039       -0.173800737785101        0.026775737389997        0.024488225885798
Se          6.696175318478728        5.690379487687770       11.665408602771791       -0.173800737785101        0.026775737389997       -0.024488225885798
Mo          5.014582094934359        6.643871624949949       10.000007589386426        0.046979217943944        0.160744155880387        0.000000000000000
Se          5.032728789173236        8.561709128325449        8.334536203951989       -0.111747135274314        0.125592789091627        0.008858482788095
Se          5.032728789173236        8.561709128325449       11.665477647046352       -0.111747135274314        0.125592789091627       -0.008858482788095
Mo          3.367139231807339        9.542378154274340       10.000007589386426       -0.152786073821494       -0.288000963681149        0.000000000000000
Se          3.326824014336423       11.459128210325508        8.332288281705234       -0.357515653787795        0.006049808440351        0.044816662109189
Se          3.326824014336423       11.459128210325508       11.667728224842129       -0.357515653787795        0.006049808440351       -0.044816662109189
Mo         11.608498859465104        0.897448102936523       10.000007589386426       -0.233777402234640        0.610058260825625        0.000000000000000
Se         11.675328406141853        2.815664022047596        8.334603920452039       -0.836522928183067       -0.088616966684816       -0.382170230122421
Se         11.675328406141853        2.815664022047596       11.665408602771791       -0.836522928183067       -0.088616966684816        0.382170230122421
Mo          9.993736510371996        3.769157487084285       10.000007589386426       -0.177749954004557        0.017431830108261        0.000000000000000
Se         10.011887187934406        5.686993662685273        8.334536203951989       -0.580459193793320       -0.068030134478316       -0.333941712594470
Se         10.011887187934406        5.686993662685273       11.665477647046352       -0.580459193793320       -0.068030134478316        0.333941712594470
Mo          8.346293647244975        6.667662688634166       10.000007589386426       -0.222305391915897       -0.246719569997580        0.000000000000000
Se          8.305978429774061        8.584416728008865        8.332288281705234       -0.001162910479206        0.059087576579300       -0.104252109101570
Se          8.305978429774061        8.584416728008865       11.667728224842129       -0.001162910479206        0.059087576579300        0.104252109101570
Mo          6.659514136461487        9.580068361537437       10.000007589386426       -0.052163592673704       -0.338883117966978        0.000000000000000
Se          6.582649270032238       11.495628731626942        8.329080378487181        0.507798757563950       -0.234347930280928       -0.252960154377699
Se          6.582649270032238       11.495628731626942       11.670938783609204        0.507798757563950       -0.234347930280928        0.252960154377699
