# total energy = -38122.06832735464 eV 

 CRYSTAL
 PRIMVEC
       13.277745107833699        0.000000000000000        0.000000000000000
       -6.638872553916849       11.498859207011680        0.000000000000000
        0.000000000000000        0.000000000000000       20.000015178772852
 PRIMCOORD
48 1
Mo          1.634851577441262        0.943875066480574       10.010967040198432       -0.067405870351960       -0.004919036765015       -0.287028829141712
Se          1.655847675780279        2.874886748552066        8.424611098989022       -0.415014030793367       -0.230507471773765       -1.059010868504942
Se          1.614081200769077        2.845946575315032       11.763598855618731        0.284011638234465        0.138950961531850       -0.842912893723571
Mo         -0.024865233263440        3.818589204346238       10.009757437619108       -0.029471540258552        0.039732046226639        0.434744685264789
Se         -0.024028735321647        5.756291542177568        8.372104255960094       -0.034359466661421       -0.291703096776458       -0.454460427331216
Se         -0.025479992861933        5.713971385195370       11.711088029266271        0.026118048907617        0.251369155030955       -0.387960614137939
Mo         -1.684584699517163        6.693304669986414        9.999411418631084        0.083913902681803        0.058716309117002       -0.889043133024505
Se         -1.704583639198582        8.617850090190391        8.280588725578861        0.262250839800228       -0.062732888269368        0.506751032557812
Se         -1.664360038168911        8.601842440688387       11.619577809983081       -0.316123445508485        0.070053079349064        0.597241305842560
Mo         -3.344301510221865        9.568020135626588        9.989620409388568        0.071036269637032       -0.008806803591473       -1.432141095875014
Se         -3.366277506149841       11.471898745570222        8.235899818869424        0.127958462166836        0.153254271916261        0.917457949411835
Se         -3.322103775950588       11.497218077716351       11.574887575499135       -0.178748313807952       -0.219230865382547        1.135053335343083
Mo          4.954287854399686        0.943875066480574        9.992674290763370        0.091051288245090        0.049530267639872       -0.858285526390320
Se          4.930206008097608        2.855462735233816        8.243408383727905        0.293788005261066        0.064750690931496        0.800702560052964
Se          4.978594094594087        2.865370588633282       11.582398795906636       -0.417979799614423       -0.118997392316791        0.992551935870186
Mo          3.294569715920474        3.818589204346238        9.988171807397302        0.155793751642796        0.102093152812848        0.122548601589130
Se          3.282326307156541        5.714772033225372        8.252956410234949        0.166212380525920        0.227831980629256        0.724815645025551
Se          3.307037518576729        5.755490894147566       11.591948150188189       -0.241303538769531       -0.308857247619289        0.882692505379937
Mo          1.634851577441262        6.693304669986414        9.994770846715896       -0.015824889914798        0.039934906356662        0.062967630092829
Se          1.646036749920101        8.593176056456503        8.335247891089770       -0.130350874726865        0.191441598673728       -0.053838924241801
Se          1.623892126629255        8.626516474422273       11.674238303268501        0.130672519875988       -0.184565694418721       -0.030739608904018
Mo         -0.024865233263440        9.568020135626588       10.006277340626346        0.051953276341184       -0.027688993640747       -0.112434134345824
Se         -0.000639987314198       11.487218607875642        8.413099293980531       -0.219448637917565       -0.071980893360358       -0.950231816045562
Se         -0.048868740869382       11.481907509832508       11.752088378384750        0.150235538346429        0.048706742929525       -0.781071664428752
Mo          8.273725459132622        0.943875066480574       10.001887718093695        0.095976238550017        0.021537369469737        0.939040570317420
Se          8.295284533864210        2.854612959546915        8.388816953727323       -0.338948424016440        0.036745194350245       -0.654411095717373
Se          8.252389450518843        2.866221692094694       11.727808693680567        0.272734517622384       -0.038563993538815       -0.553685256176339
Mo          6.614007320653410        3.818589204346238       10.010957745776857        0.159055454569880        0.043629069028612       -0.126918193363196
Se          6.635010057864981        5.749591591996155        8.424616410087065       -0.384482424227991       -0.251478169853680       -1.078870849523134
Se          6.593227649559649        5.720671335376783       11.763608150040309        0.249533643664373        0.164658147970802       -0.861148708149426
Mo          4.954287854399686        6.693304669986414       10.009766732040683        0.072817787813114        0.102852142805024       -0.122129511586674
Se          4.955141613410120        8.631009663366765        8.372157366940526       -0.043617499059219       -0.277557395086222       -0.460600481532833
Se          4.953659817056086        8.588684195286524       11.711147779119257        0.032907306947392        0.243044433497521       -0.397994091595494
Mo          3.294569715920474        9.568020135626588        9.999419385278149       -0.027437796749704       -0.020187025486366        0.012328188053821
Se          3.274578742886119       11.492577505801163        8.280640508784781        0.159875893955055       -0.064607223311024        0.498021619206056
Se          3.314786410621661       11.476548611906985       11.619628265414491       -0.196989013331995        0.071055295808923        0.580760270107967
Mo         11.593157752767514        0.943875066480574       10.004057301644314        0.034418087839679        0.012495309833941       -0.811166954592799
Se         11.579947724159730        2.875525408091753        8.315615417173326        0.242800949919408       -0.122017668549209        0.154889237146699
Se         11.606598814140174        2.845309243549856       11.654597862704993       -0.251526763725130        0.130629068213157        0.187151711133258
Mo          9.933443597611834        3.818589204346238        9.992679601861413        0.073284957466158       -0.024826583212934        0.087193346228623
Se          9.909360423535245        5.730191478619099        8.243430955894587        0.215976104437098        0.021265860854650        0.815499522464807
Se          9.957748510031724        5.740071448753839       11.582418712524298       -0.311518340579665       -0.054892819898283        0.988798380688686
Mo          8.273725459132622        6.693304669986414        9.988170479622791        0.151886444423585        0.098243695440602        0.115115024809383
Se          8.261467444849069        8.589491482189080        8.252923215872178        0.035782830007184        0.156807023851186        0.741950255475629
Se          8.286205211759475        8.630202376464208       11.591908316952868       -0.059533148956143       -0.206548379154871        0.876942744812509
Mo          6.614007320653410        9.568020135626588        9.994764207843343       -0.018207789388881        0.044447194419908        0.016107454278416
Se          6.625176559838119       11.467878244351571        8.335189469011295       -0.089857781624601        0.238512347931092       -0.001811857206934
Se          6.603059819812001       11.501238578935002       11.674178553415516        0.096103508213339       -0.231617674614625        0.016571024385427
