# total energy = -9518.428439379597 eV 

 CRYSTAL
 PRIMVEC
        7.568240097473099        0.000000000000000        0.000000000000000
       -3.784120048736550        6.554285130414141        0.000000000000000
        0.000000000000000        0.000000000000000       20.000020487584848
 PRIMCOORD
12 1
Se          3.745318438580815        6.536805523085017        8.809507155859663       -0.010089527531503       -0.058534789152748       -5.511305298012495
Se         -0.032749288549786        6.535783810671858        8.803699288408861        0.052053806519687       -0.002622269285301       -5.517183356684970
Se          5.651357002409123        3.264779845007848        8.818296153084857       -0.078894849959146        0.000883688551189       -5.362769516725105
Se          1.871232984444039        3.250708973018626        8.839452411453335        0.011845848885351        0.122082974598672       -5.355769685242377
Se          3.762812425566123        6.539057831338025       11.162976290130530       -0.076381338386139        0.014137217046015        5.551031173588791
Se         -0.032863568975257        6.543177981247090       11.149012130326684        0.031592958424355        0.034590866049280        5.444132112600549
Se          5.662668494058805        3.252739531836778       11.194583531249608       -0.086109111541289       -0.011115398151010        5.397853263470523
Se          1.855320002815092        3.253092211825320       11.182385798684511        0.007671918149241        0.025439534480329        5.324804847600844
Mo          1.856412856685167        1.064388205420500        9.993316135426209       -0.006945066960934       -0.087720679722510        0.199479899187079
Mo          5.649305252518698        1.078752725125504        9.983892919680844        0.008877251849554        0.100291322912721        0.038114050284645
Mo         -0.039307925418256        4.356218454184736        9.989356432207211       -0.030630594081293       -0.057345910520016        0.016087913885664
Mo          3.766603357030948        4.356615786789853        9.977801243226390        0.177008704632116       -0.080086813917050       -0.224475661063581
