# total energy = -9523.121258388042 eV 

 CRYSTAL
 PRIMVEC
        7.302698953924899        0.000000000000000        0.000000000000000
       -3.651349476962450        6.324319861572811        0.000000000000000
        0.000000000000000        0.000000000000000       20.000054981792154
 PRIMCOORD
12 1
Se          3.617715436390358        6.320269784732965        8.680835089713792       -0.077941998702030        0.053463800123039       -4.115475394080276
Se         -0.032954889569377        6.305042196874240        8.723433193251825       -0.029811183137842        0.001762492004191       -4.680563754979863
Se          5.438878567457848        3.140909807100380        8.702027522078081        0.222427005149738        0.010868572137294       -4.681216044143193
Se          1.812194686482175        3.134255587813563        8.689493899863461       -0.076189791115078        0.106190207530102       -4.231332182482961
Se          3.639996701168678        6.303671480280588       11.330115518917619       -0.213096981831273       -0.009343135950443        4.178610145953225
Se         -0.018377972187447        6.309197432579023       11.300078057580336       -0.089809959084443       -0.073129919876292        4.707209908712660
Se          5.434088727213969        3.158076991801266       11.271929804462433        0.261395947617306       -0.035620850435682        4.931238968957673
Se          1.795851246223291        3.136493134773045       11.329671514821220        0.050658468210898        0.227252967938748        4.178372061694161
Mo          1.791638319196772        1.041587603147785       10.010412659078455       -0.032234963170447       -0.085367605058417       -0.020131746743711
Mo          5.437317250421499        1.044169837497893       10.023965007797148        0.511862902146043       -0.248643527352410        0.351682332330307
Mo         -0.022788802355618        4.197125446522772        9.982063581739316        0.127922466706503       -0.218340234849722       -0.276102150047022
Mo          3.637705114236936        4.199170932499767        9.971003644173598       -0.655182427010235        0.270907490900024       -0.342291888060568
