# total energy = -9280.968248995718 eV 

 CRYSTAL
 PRIMVEC
        4.912722826541299        0.000000000000000        0.000000000000000
       -2.456361413270649        4.254540785855428        0.000000000000000
        0.000000000000000        0.000000000000000       20.000043430170312
 PRIMCOORD
12 1
Se          2.426500901386366        4.248637658107056        8.997041696635332       -1.984522802166415       -1.731926201938085      -77.980437225678784
Se         -0.015888236893317        4.251439383935034        9.003554002014196        3.855813399209325        1.254024502395916      -78.597264432820140
Se          3.670666625554691        2.120572877898291        9.003838939938136       -1.565429457275530       -3.688748697604792      -77.278221587534091
Se          1.206179568728942        2.110166748407110        8.926133911718448        1.479203360488156        1.775737305151812      -68.925224848676933
Se          2.435512308867091        4.245408034120888       11.008542793611037        3.862380770947187       -0.719168471520073       76.084781558646498
Se         -0.028843086986907        4.248905401501103       11.053527613989109       -1.568244302273616       -1.326296187653683       70.367653447115288
Se          3.674856195581166        2.115649347081531       11.045969389920476        1.251307873582454        1.697529711374606       71.776492881743351
Se          1.222659788722858        2.111117851546329       11.069709631707454       -2.650293550944205       -0.809726621958594       64.870376608436516
Mo          1.211155174407663        0.691059946930216        9.966918806135356        0.019456317641594        7.871806339792662        7.400592339670042
Mo          3.671803429616753        0.692510182708611       10.019875993116340       -4.584475159171519        2.841223756970765        1.732372802756652
Mo         -0.020501774899722        2.832520739742394        9.974437237149095        7.977690328799498       -3.270762727340025        9.052118052965312
Mo          2.443967104851569        2.820483586272803        9.997910718086592       -6.092886778836930       -3.893692450560078        1.496759889155430
