# total energy = -38122.62769488174 eV 

 CRYSTAL
 PRIMVEC
       13.277745107833699        0.000000000000000        0.000000000000000
       -6.638872553916849       11.498859207011680        0.000000000000000
        0.000000000000000        0.000000000000000       20.000015178772852
 PRIMCOORD
48 1
Mo          1.604461474438452        0.996516014735092       10.000007589386426       -0.235871309584331        0.380269926927238        0.000000000000000
Se          1.589927654643417        2.938423414442072        8.330514374958828        0.211235502311165       -0.366733576958364        0.003873882863186
Se          1.589927654643417        2.938423414442072       11.669498148265003        0.211235502311165       -0.366733576958364       -0.003873882863186
Mo         -0.055257991815272        3.871230152600756       10.000007589386426       -0.235888535983205        0.380293323976455        0.000000000000000
Se         -0.069791811610306        5.813137552307737        8.330514374958828        0.211240387409353       -0.366735376731380        0.003871568869308
Se         -0.069791811610306        5.813137552307737       11.669498148265003        0.211240387409353       -0.366735376731380       -0.003871568869308
Mo         -1.714974802519973        6.745944290466420       10.000007589386426       -0.235876194682519        0.380324177228170        0.000000000000000
Se         -1.729508622315008        8.687853017947912        8.330514374958828        0.211237816305044       -0.366737947835690        0.003872083090170
Se         -1.729508622315008        8.687853017947912       11.669498148265003        0.211237816305044       -0.366737947835690       -0.003872083090170
Mo         -3.374692940999185        9.620659756106596       10.000007589386426       -0.235879537118122        0.380323405896877        0.000000000000000
Se         -3.389226760794220       11.562568483588088        8.330514374958828        0.211240644519784       -0.366711208350871        0.003889566599475
Se         -3.389226760794220       11.562568483588088       11.669498148265003        0.211240644519784       -0.366711208350871       -0.003889566599475
Mo          4.990846797779596        0.880556155610337       10.000007589386426       -0.201514928248081        0.299405353956552        0.000000000000000
Se          4.998442995755787        2.784133360740022        8.330514374958828       -0.103085084855469        0.200170754915053        0.009192983458766
Se          4.998442995755787        2.784133360740022       11.669498148265003       -0.103085084855469        0.200170754915053       -0.009192983458766
Mo          3.331128659300383        3.755270293476001       10.000007589386426       -0.201511328702048        0.299449319840245        0.000000000000000
Se          3.338724857276574        5.658847498605687        8.330514374958828       -0.103085084855469        0.200172040467208        0.009192212127473
Se          3.338724857276574        5.658847498605687       11.669498148265003       -0.103085084855469        0.200172040467208       -0.009192212127473
Mo          1.671410520821171        6.629985759116177       10.000007589386426       -0.201513642695927        0.299448291398521        0.000000000000000
Se          1.679006718797362        8.533562964245862        8.330514374958828       -0.103085599076331        0.200170754915053        0.009189383912733
Se          1.679006718797362        8.533562964245862       11.669498148265003       -0.103085599076331        0.200170754915053       -0.009189383912733
Mo          0.011692382341958        9.504699896981840       10.000007589386426       -0.201514414027219        0.299475030883341        0.000000000000000
Se          0.019288580318150       11.408278429886039        8.330514374958828       -0.103085599076331        0.200197494399872        0.009211752520226
Se          0.019288580318150       11.408278429886039       11.669498148265003       -0.103085599076331        0.200197494399872       -0.009211752520226
Mo          8.261140812319416        0.965671812849594       10.000007589386426        0.277522428067612       -0.457028189205156        0.000000000000000
Se          8.267098536549302        2.872086472108824        8.330514374958828       -0.076566457896426        0.138777411990956       -0.000071733810236
Se          8.267098536549302        2.872086472108824       11.669498148265003       -0.076566457896426        0.138777411990956        0.000071733810236
Mo          6.601422673840204        3.840387278489769       10.000007589386426        0.277513943423391       -0.456975995787672        0.000000000000000
Se          6.607380398070090        5.746801937748999        8.330514374958828       -0.076564915233840        0.138783582641299       -0.000073790693684
Se          6.607380398070090        5.746801937748999       11.669498148265003       -0.076564915233840        0.138783582641299        0.000073790693684
Mo          4.941704535360992        6.715101416355434       10.000007589386426        0.277514714754684       -0.456950798965438        0.000000000000000
Se          4.947662259590877        8.621517403389173        8.330514374958828       -0.076562858350392        0.138778183322249       -0.000071476699805
Se          4.947662259590877        8.621517403389173       11.669498148265003       -0.076562858350392        0.138778183322249        0.000071476699805
Mo          3.281986396881780        9.589815554221099       10.000007589386426        0.277516514527701       -0.456983966211031        0.000000000000000
Se          3.287944121111665       11.496227557931306        8.330514374958828       -0.076560287246083        0.138846831807314       -0.000052193417484
Se          3.287944121111665       11.496227557931306       11.669498148265003       -0.076560287246083        0.138846831807314        0.000052193417484
Mo         11.571398184084797        0.981571912616225       10.000007589386426       -0.128825181429583        0.215839321687831        0.000000000000000
Se         11.557148508035070        2.922981396881661        8.330514374958828        0.112767092353910       -0.191577095870841       -0.009937575266809
Se         11.557148508035070        2.922981396881661       11.669498148265003        0.112767092353910       -0.191577095870841        0.009937575266809
Mo          9.911678717831073        3.856287378256400       10.000007589386426       -0.128802812822090        0.215895114651348        0.000000000000000
Se          9.897433025104878        5.797695534747326        8.330514374958828        0.112737267543919       -0.191570925220498       -0.009937061045947
Se          9.897433025104878        5.797695534747326       11.669498148265003        0.112737267543919       -0.191570925220498        0.009937061045947
Mo          8.251960579351861        6.731001516122064       10.000007589386426       -0.128778387331149        0.215883801792386        0.000000000000000
Se          8.237714886625666        8.672409672612989        8.330514374958828        0.112736753323057       -0.191561669244984       -0.009937318156378
Se          8.237714886625666        8.672409672612989       11.669498148265003        0.112736753323057       -0.191561669244984        0.009937318156378
Mo          6.592242440872648        9.605715653987728       10.000007589386426       -0.128773502232961        0.215931881442974        0.000000000000000
Se          6.577996748146454       11.547127793802188        8.330514374958828        0.112741895531676       -0.191569125447482       -0.009920863088797
Se          6.577996748146454       11.547127793802188       11.669498148265003        0.112741895531676       -0.191569125447482        0.009920863088797
