# total energy = -9519.319077354752 eV 

 CRYSTAL
 PRIMVEC
        7.833781241021299        0.000000000000000        0.000000000000000
       -3.916890620510650        6.784250399255471        0.000000000000000
        0.000000000000000        0.000000000000000       19.999996028483224
 PRIMCOORD
12 1
Se          3.944577553550791        6.748487621133960        8.062074860703389       -0.149235378770017        0.080087328137912        3.376047391932307
Se         -0.109896200139667        6.799473786341148        8.419155843987872        0.425287392283002       -0.253800134155627        1.937240451024376
Se          5.830521218420463        3.318898146099165        8.314098570520784        0.200185410209617       -0.060734625999992        2.588822303559529
Se          1.921603037078802        3.393507862016775        8.073078973212652       -0.006027696943289       -0.018948010319598        3.095605989142072
Se          3.889104981826871        6.820339846054732       11.896981827014255        0.030849137947604       -0.273633118578569       -2.864332071173632
Se         -0.059661294553494        6.708066093308414       11.891657205904734        0.132339623910295       -0.069398219081423       -2.479345196280109
Se          5.905260191728551        3.371031176880037       11.887425397278333       -0.006956894040758        0.027512615885112       -2.452367112980951
Se          1.919206683397173        3.421487778475331       11.617357355750373        0.191586094735924       -0.243731689679462       -1.210677226399630
Mo          1.930784228693279        1.055312955699826       10.034516787902048       -0.119225706379478        0.207293999404638       -0.390036266647032
Mo          5.961442504032909        1.046217152300877       10.002258843507770       -0.402466527541942        0.295672110499098        0.165461360957103
Mo          0.054684493331073        4.485456279068362       10.136154615857430       -0.684108378934302        0.257260326335408       -0.695471631540752
Mo          3.845436351676922        4.530475453104263       10.158372002835090        0.387772923523343        0.052419674662934       -1.070947991593281
