# total energy = -9509.74627241636 eV 

 CRYSTAL
 PRIMVEC
        9.161539876487199        0.000000000000000        0.000000000000000
       -4.580769938243599        7.934122571534827        0.000000000000000
        0.000000000000000        0.000000000000000       19.999989688886860
 PRIMCOORD
12 1
Se          4.547032567648436        7.906760716539710        8.736001923842158       -0.075655772749986       -0.001378883241207        0.188485600049048
Se         -0.041051944032551        7.907819790549431        8.801836749394596        0.123453116085226       -0.064410790941775        0.151985174829072
Se          6.828450221539129        3.961785154952544        8.799342978240215       -0.050793708297580        0.007802787358597        0.229398297374629
Se          2.250854756862733        3.960983520213351        8.745179038336435       -0.004196813564465        0.081245353518929        0.191878172185488
Se          4.546713746060734        7.913827012246444       11.206126227646772        0.084182840192581        0.031938000622695       -0.128547759274583
Se         -0.059688348449302        7.928385615264170       11.248465368031971       -0.111614723402373        0.059490468624605       -0.035798770853903
Se          6.855902775779023        3.932711924308500       11.265255722163609        0.025277040687966       -0.033109395746122       -0.031539736565147
Se          2.241389970016334        3.947820219718815       11.218042642564120       -0.010043504764362       -0.083496612452364       -0.113786535212643
Mo          2.253693918070456        1.289009421388008       10.000889010735376       -0.038017376762606        0.038135133339983        0.156980059171218
Mo          6.836668122808338        1.305061355405601        9.968036644892280        0.050522456792924        0.044554409469616       -0.175280408315242
Mo         -0.017660700419904        5.270081450088534        9.981510521588630        0.014214093064870       -0.073402971153966       -0.178275487725428
Mo          4.553645367131284        5.255428483210079        9.980028184436614       -0.007327647282194       -0.007367756509422       -0.255498862772941
