# total energy = -9513.811250364992 eV 

 CRYSTAL
 PRIMVEC
        8.630457589390799        0.000000000000000        0.000000000000000
       -4.315228794695400        7.474192033852167        0.000000000000000
        0.000000000000000        0.000000000000000       20.000041178044860
 PRIMCOORD
12 1
Se          4.294018582123713        7.441327251351766        8.440295812957681       -0.002444605977512        0.040202558315286        1.147365325439753
Se         -0.013406552819360        7.440902632838369        8.444237342938754       -0.013606284006094        0.064535489500787        1.059043264419242
Se          6.432152310600640        3.724298774412535        8.455581216394251       -0.014961770198085       -0.039923850608131        1.081519858293255
Se          2.116602462882915        3.706802247741563        8.446578786082757        0.002351789111938       -0.038908778626724        1.126286383868407
Se          4.280656907683817        7.451888342303904       11.573558412459001        0.013531464870687       -0.045372534860912       -1.185636213087280
Se         -0.022623018479070        7.442238627673206       11.535753556034432       -0.031124760329587       -0.039571866428155       -1.030979146659733
Se          6.421910546579309        3.733138089075589       11.567166695568298       -0.008795490732511        0.048437291197885       -1.119281667287492
Se          2.116633532530237        3.729832623818852       11.569680747864089        0.013338632047471        0.044185456001196       -1.145103267868218
Mo          2.126062307446646        1.215266815802744        9.989464676344845       -0.028857046328571       -0.000565900058530       -0.100704756485695
Mo          6.426735835417539        1.230689443514985        9.984036118521118       -0.009316910686486       -0.050583649075491       -0.103731717589318
Mo         -0.048141555479381        4.977093408951227       10.013635135869693        0.036064880149940        0.014067540119226        0.123402208219897
Mo          4.272179209193760        4.971572505231293       10.013715399125276        0.043819587857949        0.003498501633993        0.147819728737183
