# total energy = -9527.376026708875 eV 

 CRYSTAL
 PRIMVEC
        6.771563749103600        0.000000000000000        0.000000000000000
       -3.385781874551800        5.864343495817446        0.000000000000000
        0.000000000000000        0.000000000000000       19.999962507379962
 PRIMCOORD
12 1
Se          3.341598098245274        5.859214713433874        8.529932322051458        0.047353570731414       -0.367549645466212       -4.070649990216435
Se         -0.032366043251590        5.840110777784902        8.530668391030984        0.193189435383355        0.177075553344164       -4.116758118020306
Se          5.070897025174604        2.909057692207532        8.597468513103143       -0.295115980636944        0.134706068316797       -5.095024741236248
Se          1.674765492588674        2.911500872408209        8.597815894323471        0.109255735198369        0.265714631526043       -5.353458519578530
Se          3.348439409100993        5.855973843023554       11.439295411784075        0.307045647522786       -0.022421315131358        3.989197662800587
Se         -0.016474537445194        5.852964560093452       11.457217032402452       -0.313718177426908        0.017492508169966        3.511934882679339
Se          5.049129156346736        2.912726525446796       11.465263004449136        0.259731671797739        0.103982400259499        3.882908467754568
Se          1.664387393986798        2.918921829120852       11.454125813550986       -0.065294736603395       -0.215829294381023        3.925540976752801
Mo          1.658622761767186        0.963474341975458        9.962071331197000        0.186365210324969       -0.476922623021096        1.271133401802899
Mo          5.056693670210859        0.964515131323695        9.996593440346306       -0.366865217499012       -0.306876725969649        0.359794166426911
Mo         -0.018159979662346        3.898538224761423        9.979509462163692       -0.134386737161552        0.185086600151834        1.344357938317782
Mo          3.363485146595127        3.886345347074787       10.007723182524332        0.072439578369180        0.505541585090604        0.351023872516633
