# total energy = -9514.890184534584 eV 

 CRYSTAL
 PRIMVEC
        5.443805113637699        0.000000000000000        0.000000000000000
       -2.721902556818850        4.714471323538089        0.000000000000000
        0.000000000000000        0.000000000000000       19.999957500357748
 PRIMCOORD
12 1
Se          2.714792402959928        4.707485832816269        7.972577796440024        0.227484367326606       -0.320550115798222       -0.333985421367732
Se         -0.001385448401421        4.691455459898140        8.084868253280053       -0.293539122363902        0.901368749974016       -1.353008932988097
Se          4.114991338716634        2.343312041429893        7.983608578741789       -1.060072991695213       -0.006040038243975       -0.534394260541849
Se          1.301610536387706        2.370189196036945        7.901160517154211        0.811578845503187       -0.471029137722765        0.408038367691150
Se          2.716337899231689        4.683221160283251       11.948479370122705        0.376653925826299        0.164908059309690       -0.298443760944784
Se          0.029437376151996        4.672957410121999       12.081174297289669       -0.733132910356487        0.338161408987290        0.332625307187985
Se          4.062853295240770        2.350142928086486       11.868318795443878        0.173869900491028        0.013376941501683        0.766883282406978
Se          1.303827798210490        2.363995234578648       12.020727918449369        0.405856271463642       -0.570802897337975        0.301055745812847
Mo          1.355384987680730        0.733989332232794        9.942501967028065       -0.653745179701201        1.050893377978857       -0.752214618100181
Mo          4.044298085510936        0.755422137345697       10.044400199906159        0.866321512909793       -0.337698095990710        0.880011357805947
Mo         -0.060633101355697        3.159270924780775        9.875572016297424        1.143240759906387       -1.007236026802840       -0.382953131384676
Mo          2.729764500163965        3.096112986613373       10.003514501600183       -1.264515379310138        0.244648031255382        0.966385807311981
