# total energy = -9505.010198580794 eV 

 CRYSTAL
 PRIMVEC
        9.427081020035398        0.000000000000000        0.000000000000000
       -4.713540510017699        8.164087840376157        0.000000000000000
        0.000000000000000        0.000000000000000       19.999967175569981
 PRIMCOORD
12 1
Se          4.675799191153987        8.148399292142614        8.530202672410761       -0.080109439634974       -0.085992383405636        1.578607652414085
Se         -0.017798328965827        8.131844395163329        8.496821378518815        0.115356451504049        0.018992490424153        1.537874418169310
Se          7.052178717392612        4.061050753464561        8.490381739474030       -0.054619768620609       -0.006435731197214        1.563197224513986
Se          2.333292109728451        4.057734306361713        8.497022175344542        0.098848933395068        0.042818914060675        1.552165130142604
Se          4.667227146382469        8.155028415515902       11.501052042356614        0.068572380377199        0.087967762846657       -1.485849408017890
Se         -0.040447833824564        8.133847649880085       11.468395690995109       -0.159626753947460       -0.014895435706898       -1.466749445433599
Se          7.046707239568585        4.048038553532606       11.476427564024180        0.077950997567114       -0.005074588575742       -1.413178944481713
Se          2.339517754034083        4.048191272245131       11.538804673717550       -0.008362773877215       -0.114304869841446       -1.500831232829589
Mo          2.329163990949778        1.349139731436530       10.003735566030963        0.032620371706447        0.092361523001233        0.290601378579820
Mo          7.027715442145620        1.354329339538060        9.972721412183150        0.022401003407312        0.038649354201891       -0.261233196714512
Mo         -0.056534204877152        5.429973214421635        9.994463089139657       -0.049955014071808        0.012491710287908       -0.030796687419689
Mo          4.674461488357244        5.421110815554701        9.973205964147580       -0.063076130694692       -0.066578746095580       -0.363806374701951
