# total energy = -9528.607025915302 eV 

 CRYSTAL
 PRIMVEC
        6.605613763817199        0.000000000000000        0.000000000000000
       -3.302806881908599        5.720626659809790        0.000000000000000
        0.000000000000000        0.000000000000000       20.000021566736013
 PRIMCOORD
12 1
Se          3.271037182511520        5.737154566008236        8.282610655299408        0.070594811027084       -0.072729598935297        1.236346617605231
Se          0.045870703098699        5.683569827156151        8.135557802812063       -0.275793617529877       -0.016962346461339        2.865038096417032
Se          4.883377005350734        2.848049347390992        8.355096697375279        0.861672956318141       -0.042674932219341        1.080075411892154
Se          1.645980232054206        2.827246287964603        8.424270024148596       -0.603505544382327       -0.482277461966578        0.174755645925665
Se          3.280421777985775        5.738406329816479       11.479261360655208       -0.528682809428633       -2.108366726106692        5.853439577378889
Se          0.019777868170245        5.691892239937185       11.768138061774460       -0.132212868467835        0.097951875101469        0.597046930356759
Se          4.924220175813792        2.865477598745447       11.771678010190490       -0.092586237517886        0.158272810418056        0.302089072634852
Se          1.648594073420548        2.795193207737055       11.751753497394688        0.345778819725168        0.366105456175543        1.071037980244115
Mo          1.587463081404678        0.897997520876624       10.179438409473196        3.357697163364677        1.045070083828176       -5.267718104395230
Mo          4.976719612324482        0.955422763570992       10.159990161429764       -2.538337127779094        0.818348048929349       -4.656639372269147
Mo          0.038594619537855        3.775985491529364       10.166167070860311       -1.102772092295063        0.453749774100059       -2.741056875506626
Mo          3.254464358139479        3.789697424580296       10.017926529018231        0.638146546965643       -0.216487239973835       -0.514415237394125
