# total energy = -38122.8018316262 eV 

 CRYSTAL
 PRIMVEC
       26.555490215667398        0.000000000000000        0.000000000000000
       -3.319436276958425        5.749422964633285        0.000000000000000
        0.000000000000000        0.000000000000000       20.000028456517960
 PRIMCOORD
48 1
Mo          1.664556548796507        0.892426459736740       10.000008917160937        0.109960732000045       -0.195477203997985        0.000000000000000
Se          1.671508776134969        2.797118995455484        8.330515702733337       -0.109465537310027        0.184543325811228       -0.000947451938066
Se          1.671508776134969        2.797118995455484       11.669499476039515       -0.109465537310027        0.184543325811228        0.000947451938066
Mo          0.004838410317295        3.767140597602404       10.000008917160937        0.109999555675119       -0.195438894543773        0.000000000000000
Se          0.011790637655756        5.671835788870171        8.330515702733337       -0.109460137990977        0.184553096007604       -0.000941024177292
Se          0.011790637655756        5.671835788870171       11.669499476039515       -0.109460137990977        0.184553096007604        0.000941024177292
Mo          4.952675936143595        0.946671359600284       10.000008917160937        0.241334134910814       -0.414794458485332        0.000000000000000
Se          4.960807227247632        2.849321778121443        8.330515702733337       -0.120185499618230        0.209178618863532       -0.000414976235560
Se          4.960807227247632        2.849321778121443       11.669499476039515       -0.120185499618230        0.209178618863532        0.000414976235560
Mo          3.292957797664383        3.821385497465948       10.000008917160937        0.241342619555036       -0.414771832767408        0.000000000000000
Se          3.301089088768420        5.724035915987107        8.330515702733337       -0.120181385851335        0.209197645035423       -0.000406748701769
Se          3.301089088768420        5.724035915987107       11.669499476039515       -0.120181385851335        0.209197645035423        0.000406748701769
Mo          8.241533566118679        0.999633629286411       10.000008917160937        0.221444329082631       -0.377394146757016        0.000000000000000
Se          8.247165985593421        2.906615248261745        8.330515702733337       -0.076129884384665        0.134530461892456       -0.000778273274498
Se          8.247165985593421        2.906615248261745       11.669499476039515       -0.076129884384665        0.134530461892456        0.000778273274498
Mo          6.581815427639467        3.874347767152075       10.000008917160937        0.221456413272886       -0.377367407272197        0.000000000000000
Se          6.587447847114209        5.781329386127410        8.330515702733337       -0.076124485065615        0.134542288972279       -0.000767731746829
Se          6.587447847114209        5.781329386127410       11.669499476039515       -0.076124485065615        0.134542288972279        0.000767731746829
Mo         11.545169326398781        1.027004373051699       10.000008917160937        0.097407315208708       -0.162143607956071        0.000000000000000
Se         11.545769480477656        2.942706815013859        8.330515702733337        0.000828666918965       -0.002962169275023       -0.001058266533807
Se         11.545769480477656        2.942706815013859       11.669499476039515        0.000828666918965       -0.002962169275023        0.001058266533807
Mo          9.885451187919569        3.901718510917364       10.000008917160937        0.097453080865418       -0.162154920815033        0.000000000000000
Se          9.886048686449422        5.817420952879523        8.330515702733337        0.000883945661620       -0.002941343330116       -0.001048753447862
Se          9.886048686449422        5.817420952879523       11.669499476039515        0.000883945661620       -0.002941343330116        0.001048753447862
Mo         14.870832865812780        1.016220188475117       10.000008917160937       -0.073933904193886        0.124680561282602        0.000000000000000
Se         14.866172377279929        2.941028508032229        8.330515702733337        0.077470972392522       -0.139119625974556       -0.000837151563187
Se         14.866172377279929        2.941028508032229       11.669499476039515        0.077470972392522       -0.139119625974556        0.000837151563187
Mo         13.211112071784546        3.890936981889803       10.000008917160937       -0.073815376285216        0.124693931025011        0.000000000000000
Se         13.206451583251697        5.815742645897893        8.330515702733337        0.077521108926558       -0.139098285808787       -0.000832009354568
Se         13.206451583251697        5.815742645897893       11.669499476039515        0.077521108926558       -0.139098285808787        0.000832009354568
Mo         18.215666813613471        0.972233674481885       10.000008917160937       -0.206220049134542        0.354076801773783        0.000000000000000
Se         18.207936510411688        2.902353092082131        8.330515702733337        0.120415613453934       -0.210669602252635       -0.000524505279146
Se         18.207936510411688        2.902353092082131       11.669499476039515        0.120415613453934       -0.210669602252635        0.000524505279146
Mo         16.555943364036214        3.846947812347550       10.000008917160937       -0.206108720317939        0.354114339896702        0.000000000000000
Se         16.548213060834435        5.777067229947795        8.330515702733337        0.120426154981603       -0.210675001571685       -0.000546873886640
Se         16.548213060834435        5.777067229947795       11.669499476039515        0.120426154981603       -0.210675001571685        0.000546873886640
Mo         21.568007998498125        0.915229659184934       10.000008917160937       -0.246550648444443        0.433604657613939        0.000000000000000
Se         21.560819427296746        2.844430256823717        8.330515702733337        0.107622569740948       -0.183128447109687       -0.000734307390805
Se         21.560819427296746        2.844430256823717       11.669499476039515        0.107622569740948       -0.183128447109687        0.000734307390805
Mo         19.908297826665979        3.789946452599620       10.000008917160937       -0.246646550635189        0.433612885147729        0.000000000000000
Se         19.901095977719489        5.719144394689382        8.330515702733337        0.107648537894474       -0.183095279864094       -0.000702682807798
Se         19.901095977719489        5.719144394689382       11.669499476039515        0.107648537894474       -0.183095279864094        0.000702682807798
Mo         24.912772902024255        0.871373267093759       10.000008917160937       -0.179715820359633        0.314252967123293        0.000000000000000
Se         24.909461432394362        2.793844703511893        8.330515702733337        0.017393006433187       -0.030869706782080       -0.000902200502218
Se         24.909461432394362        2.793844703511893       11.669499476039515        0.017393006433187       -0.030869706782080        0.000902200502218
Mo         23.253049452446998        3.746090060508445       10.000008917160937       -0.179602434659582        0.314261708877946        0.000000000000000
Se         23.249740638366131        5.668561496926579        8.330515702733337        0.017434144102140       -0.030863793242169       -0.000903743164804
Se         23.249740638366131        5.668561496926579       11.669499476039515        0.017434144102140       -0.030863793242169        0.000903743164804
