# total energy = -9484.157691295432 eV 

 CRYSTAL
 PRIMVEC
        6.771563749103600        0.000000000000000        0.000000000000000
       -3.385781874551800        5.864343495817446        0.000000000000000
        0.000000000000000        0.000000000000000       19.999962507379962
 PRIMCOORD
12 1
Se          3.365339200749631        5.842434101307220        9.011399984801972        0.341156231287044        0.010275161262652      -21.311218219995144
Se         -0.033762339696656        5.856640842052840        9.043773476773685        0.439402240721524        0.087621177985731      -22.207521894479363
Se          5.061747965393190        2.916679764363523        9.039120058165302       -0.751513735065400        0.264772836017457      -23.891366646056003
Se          1.679237433288582        2.911001131003525        9.031330728384708       -0.228750893309487        0.106914487614100      -21.912000964913666
Se          3.357597949071656        5.840040353521912       10.981954153515241        0.172461963771123        0.757199732245951       21.219285814303177
Se         -0.042452964612255        5.859944688006028       10.985415099747408        0.816063365639890       -0.150895797933119       22.650005346605443
Se          5.049865225326264        2.921776720397474       10.937534726790245        0.057064631708552       -0.198900372275708       23.938799921021012
Se          1.659805753954155        2.912410293419713       10.981087393355356       -0.597236934965234       -0.025902847476908       21.847388599394026
Mo          1.674153343225755        0.961216025465132        9.991222913136891       -1.521906060634040       -0.111811155771622       -0.224864926256045
Mo          5.062207077415380        0.959982923706420        9.976248954218498       -0.127004325357565       -1.523569308011883       -0.149480147900285
Mo         -0.028442599215360        3.905302339790402        9.975030749900036        1.613304190850487        0.470226181846895       -0.342222211133780
Mo          3.345410488636019        3.902144759614195       10.028287067317608       -0.213040674646894        0.314070161606885        0.383195072300204
