# total energy = -9508.148260865175 eV 

 CRYSTAL
 PRIMVEC
        8.895998732938999        0.000000000000000        0.000000000000000
       -4.447999366469499        7.704157302693497        0.000000000000000
        0.000000000000000        0.000000000000000       20.000011039389658
 PRIMCOORD
12 1
Se          4.423250697994463        7.699676388131715        8.225369420457026       -0.003743013653831        0.017357268083284        2.299116183500292
Se         -0.025868674715513        7.678663149524640        8.274141733510364        0.004327425663389       -0.076062264341324        2.101558699005457
Se          6.621770461658328        3.834670071426260        8.290298646409127        0.045832505421889        0.046665286107749        2.079517907311911
Se          2.198351629287813        3.819843110338071        8.278211652930683       -0.051592293296124        0.008933044813071        2.122434523336349
Se          4.400259878869056        7.691108651752022       11.772847295988196       -0.000698569040902        0.005619405578934       -2.188759244326147
Se         -0.042906291488838        7.691925304435705       11.714613198682503       -0.024492339652693        0.066887792833587       -2.023139246233145
Se          6.656424824722493        3.823117727471665       11.717932295809764       -0.047387766418731       -0.013485184993115       -2.028092992906338
Se          2.203298694183201        3.823353471438088       11.738854795229763        0.070385008915426       -0.061163229088393       -2.076909779100312
Mo          2.190687726379386        1.274568880862595       10.034324503606761        0.057000611211245        0.052013954402889       -0.049038929606318
Mo          6.642160980354098        1.267668254645455       10.026790482279834       -0.025773263819707        0.046459340652555       -0.036993563026547
Mo         -0.045837523071341        5.118698067741589        9.977785094059694       -0.032469190773046        0.005412431682016       -0.136060526067064
Mo          4.423770224320467        5.113949383617946       10.032057803129609        0.008611142553517       -0.098638102841686       -0.063633031888138
