# total energy = -9492.00572039376 eV 

 CRYSTAL
 PRIMVEC
        6.638793177329500        0.000000000000000        0.000000000000000
       -3.319396588664750        5.749360861396781        0.000000000000000
        0.000000000000000        0.000000000000000       19.999981854470612
 PRIMCOORD
12 1
Se          3.284596698708506        5.730031351181668        8.971009850956484       -0.012112215291820        0.018833081956961      -17.753409180004102
Se         -0.031059593880136        5.736806239619133        8.929688010582833       -0.200295196363635       -0.118487028111347      -17.818749168043347
Se          4.949127370594660        2.850749572932071        8.973477490380496        0.367669973147899        0.647883061875446      -18.985897598482435
Se          1.639516363073293        2.851964472083522        8.931548200431120       -0.179471308339795        0.578937871373364      -17.813551423571177
Se          3.278399385277469        5.743755064437843       11.068728416456564        0.061977240712794       -0.017873031607779       18.034707274750279
Se         -0.024651166826060        5.736411231425081       11.044249858253115       -0.315216617018509        0.231573451620501       18.041874999344415
Se          4.944305615109966        2.870865116259379       11.042804592978410        0.450809459211667       -0.141782518707949       18.989457035288567
Se          1.627264470264532        2.870927520915246       11.057595160298183        0.152380096451017       -0.163991974844200       17.905560962392432
Mo          1.626161102838460        0.954228265102091       10.004268301679458        0.433308466397479       -0.207997196433298       -0.014589988514925
Mo          4.939846337732753        0.953591604836385        9.999380158262991       -0.072222062944593       -0.747214591549415       -0.288718301783511
Mo         -0.023742316040083        3.823832674537095       10.026702111584290        0.373960436951623       -0.191219198150953       -0.066784434440343
Mo          3.294609990457873        3.814452723656847       10.015671756720158       -1.060788272914128        0.111337815468235       -0.229900434046283
