# total energy = -9530.468840795313 eV 

 CRYSTAL
 PRIMVEC
        6.771563749103600        0.000000000000000        0.000000000000000
       -3.385781874551800        5.864343495817446        0.000000000000000
        0.000000000000000        0.000000000000000       19.999962507379962
 PRIMCOORD
12 1
Se          3.359105976318582        5.838816054796075        8.415863976385058       -0.018538433403088        0.242421197812888       -1.247174566294435
Se         -0.016221958117353        5.839351685488628        8.368603878667313       -0.116907084513133        0.165697902553581       -0.600675786979246
Se          5.038912220962088        2.922548001508497        8.381009383455671        0.160719473279015       -0.059280409402515       -0.787880977082142
Se          1.676191583914236        2.919987673254961        8.360517277238134       -0.171826129675373       -0.125367817464542       -0.496962838451387
Se          3.371752548776407        5.846124603550482       11.581532108333995       -0.201755840721885       -0.036295508206506        0.808324855889031
Se         -0.021124570271704        5.855270277550021       11.613701099080487       -0.010710192111827       -0.098846876511620        0.385296178741961
Se          5.049788706655899        2.911080358299390       11.642522905865796        0.004449296007662        0.144445411441341       -0.045983429244859
Se          1.663712269081012        2.907765000687829       11.580430374912016       -0.008251959281474        0.167415143121924        0.607448332841009
Mo          1.666973454182581        0.952088634687715        9.995741577626667        0.316386983700213        0.188065224494438       -0.258132702027635
Mo          5.045743374472184        0.970392171501542        9.984441869198537        0.004110167349233       -0.008668992400481        0.399304069241206
Mo         -0.033062160004998        3.904212118026797        9.974217485093767        0.021773911066215       -0.236486574845604        0.448277178577200
Mo          3.360693908017746        3.896908986523389        9.967117500502832        0.020550065414873       -0.343098700592902        0.788159684789297
