# total energy = -9374.275038420043 eV 

 CRYSTAL
 PRIMVEC
        4.381587621720000        0.000000000000000        0.000000000000000
       -2.190793810860000        3.794564420100063        0.000000000000000
        0.000000000000000        0.000000000000000       19.999905673320075
 PRIMCOORD
12 1
Se          2.171067465228254        3.792113359984472        8.458359146565993       -0.142120104703791        0.248250919724343      -34.282046596894098
Se         -0.013262627572184        3.780991137965498        8.467482488311939        0.436879473173002        0.178966600563832      -34.834960007556717
Se          3.264736272500248        1.894726429990282        8.456934254271410        0.767554854852630       -0.949103101253673      -34.229519964291889
Se          1.090417669256677        1.881242094084439        8.469408196071685       -1.050130017109354        0.674934164536996      -34.785268274566207
Se          2.171686145400441        3.781599302327393       11.595712589251310        0.480394128059839       -0.003822717887426       28.082700415905858
Se         -0.025713346958064        3.789901972711791       11.597591852182267       -0.131145603068944       -0.096071369409470       28.156185662397728
Se          3.267492729273072        1.882673558760455       11.529764437639280       -0.218508899292428        0.432402666349228       31.472317067942203
Se          1.072131113317429        1.895100617573177       11.539844279963047        0.271346121295232       -0.232699852418512       30.076103812357427
Mo          1.083904877415753        0.628568977290324        9.972884702809340       -0.483183519125261       -0.869967338820723        6.272046726444840
Mo          3.272322115149731        0.622295858292307        9.993713894045470        0.234780132915362       -1.835920429277408        4.128396735898308
Mo         -0.026136170163560        2.523962723075394        9.980369330784761        0.791606250116237        0.783300297644263        4.421380499731350
Mo          2.182049038284571        2.520757153571343        9.971572417316635       -0.957472302891662        1.669730417358981        5.522664179741619
