# total energy = -9157.78033363684 eV 

 CRYSTAL
 PRIMVEC
        4.116046478171800        0.000000000000000        0.000000000000000
       -2.058023239085900        3.564599151258733        0.000000000000000
        0.000000000000000        0.000000000000000       19.999952158366341
 PRIMCOORD
12 1
Se          2.041272164733684        3.553479651697952        8.750627140803262       -0.990048451603985       -0.163575198835623      -79.825707475777833
Se         -0.007622918077574        3.554737515501681        8.756528728243664        0.542043295862735        4.680093242891217      -84.224118500939028
Se          3.078039650655453        1.774579518854907        8.765620251704650       -4.525089591602744       -2.976738180482482      -84.519518845712611
Se          1.007315938556506        1.775029402734972        8.751342921285817        4.231767213332136       -1.501727005571034      -82.400820651158881
Se          2.036336613401708        3.555502276937326       11.218020426073343        1.812416422121302        0.659253256463532       90.960042581359218
Se         -0.019967764674907        3.561144965054251       11.270958957852349       -0.974696901992574       -4.196071286650615       81.427883412955765
Se          3.065916658963294        1.776523116001900       11.222983143312073        5.091981067954612        2.376512336757406       88.834467196998332
Se          1.022801740221332        1.770056806984692       11.226403577935436       -5.697386401311260        1.392697270441474       85.608230339870076
Mo          1.013077580416651        0.582311913034286       10.006690997407659        2.259145795904157       -0.158049124343126       -4.829657465902424
Mo          3.069760223164611        0.586918180648008       10.030192799588724       -2.625933623163453       -2.266600712849674      -10.115457889796229
Mo         -0.021351167896221        2.373288937848934        9.966785515197135        3.305252291879510        1.858203161886481       11.630144546639507
Mo          2.045549560233800        2.366297009696464       10.023360162434958       -2.429451117380437        0.296002754513305      -12.545486991425451
