# total energy = -9515.136489983299 eV 

 CRYSTAL
 PRIMVEC
        5.709346257185899        0.000000000000000        0.000000000000000
       -2.854673128592950        4.944436592379419        0.000000000000000
        0.000000000000000        0.000000000000000       19.999925579116063
 PRIMCOORD
12 1
Se          2.780974032432066        4.930762708093458        8.470774913641115        0.137274858632460        2.119252524642860       -5.463196079724507
Se         -0.051500016043694        4.916666903119092        8.144132366509622        0.042344288205134        0.680332712255740        0.450426878890408
Se          4.263217950618523        2.506019338836127        8.155191370209788       -0.447613576554907       -0.627381847442455        0.206172483704816
Se          1.385934098043240        2.478156016297183        8.194948402871704       -0.300688335007013       -0.644160874166523       -0.770053454020643
Se          2.798009008859631        4.923354260390134       11.478806792048333        0.464249392768934       -2.267951056833045       16.102654798001694
Se         -0.062399728983288        4.928568606326822       11.661379695726000        0.176837983305963       -1.183998933862964        7.771979358318244
Se          4.247182109785965        2.493556406891316       11.768866703036910       -0.279813539117845        0.912410100320912        3.944591059913487
Se          1.424522998460934        2.471093554977044       11.671401882145863       -1.000755815501071        1.412323280967498        7.119966845811243
Mo          1.348658918199324        0.831876870795517       10.181149463964450        4.837695509305345        1.775259851081531      -11.476252383744049
Mo          4.253796958359541        0.826717905517524       10.199599787329173       -5.441537611241791        4.075676242031157      -10.766620395218496
Mo         -0.034566665979506        3.284332835850603       10.039182572737145       -0.993134033885866        0.026738456377509       -3.621761917255288
Mo          2.759939088016715        3.322524365768797       10.011988385579542        2.805140879090658       -6.278500712482652       -3.497907451787342
