# total energy = -9530.620595894343 eV 

 CRYSTAL
 PRIMVEC
        6.705204922078999        0.000000000000000        0.000000000000000
       -3.352602461039500        5.806875092643465        0.000000000000000
        0.000000000000000        0.000000000000000       20.000050559404965
 PRIMCOORD
12 1
Se          3.333471170355824        5.798929424810802        8.385454847777360       -0.238845820160040       -0.233796942627393       -0.423097582742566
Se         -0.029342647259510        5.794316914344903        8.351825563011165        0.198116442571729        0.006404363724637       -0.291633934070532
Se          5.014874391300783        2.883093954588145        8.348004266726074       -0.299534680503322       -0.113140159589224       -0.050511915265255
Se          1.652053197960035        2.889371367436195        8.377043168202613        0.181825411445612        0.040349111260929       -0.642685831624139
Se          3.321633801586386        5.802359807648937       11.685479114940870        0.203903741262076       -0.091020692103807       -0.173813850417080
Se         -0.022075546164961        5.781985371972708       11.654549345676305       -0.206191252766276       -0.096126648152125       -0.046033565778895
Se          5.003770571949820        2.878525027954240       11.648400002242266        0.123003687051919        0.142594730559333        0.214386390642509
Se          1.654613245199285        2.886060337245673       11.679530927654493       -0.182389768841556       -0.105630992342777       -0.258870608964474
Mo          1.653055626095886        0.951880278025226        9.970447279750209        0.022826521170541        0.016248350794579        1.246643890364946
Mo          5.001517623096002        0.945157639570349       10.033180506480688        0.013749751626567        0.068843374771424       -0.430613949081080
Mo         -0.024205119248213        3.845371323365546        9.968537637388399       -0.012524363312639        0.147823585393648        0.977643901752171
Mo          3.320637408134965        3.845991554820838       10.029040042441302        0.196060330455389        0.217451918310775       -0.121412944815605
