# total energy = -9501.522334071253 eV 

 CRYSTAL
 PRIMVEC
        5.443805113637699        0.000000000000000        0.000000000000000
       -2.721902556818850        4.714471323538089        0.000000000000000
        0.000000000000000        0.000000000000000       19.999957500357748
 PRIMCOORD
12 1
Se          2.725614687525840        4.743705645759346        8.480160907138162        0.303346856863079       -5.085386442511069      -18.461157577512484
Se          0.001849804977614        4.666108014528020        8.239745053143556       -0.609529127558721       -1.673140473004725       -7.414019160595331
Se          4.059025755865371        2.306246805552668        8.456403052861223        0.091248491945632        4.696992083076110      -12.034098458024518
Se          1.382085763002101        2.303587506754656        8.478791245771570       -0.350838495895915        5.825366974975158      -16.889041706369561
Se          2.677981392781509        4.700426850725415       11.768064591710104        0.266900424833603        0.738765942788262        3.176047358343408
Se         -0.070774910282404        4.707091156945530       11.593311914996198        0.734090389601360        0.991722497619928        5.555015871047719
Se          4.083716678338786        2.311703131418067       11.507548031713903       -0.706535350495141       -1.287152667203498        8.654887065128891
Se          1.390520939025682        2.311936126276931       11.844087874502566       -0.658412248243881       -0.070647775775861        2.678204173776434
Mo          1.341559900214136        0.806633100810709        9.811044961143942        3.930038866631913       -4.641749850102161       16.360406976591516
Mo          4.078351264018785        0.736225102992965        9.820682673717126       -4.273813767658225       -1.231467432957014       13.323171483036813
Mo          0.035622627522111        3.104305368928887       10.028396501633086       -0.026542795339553        1.756064500527355        0.184367719386886
Mo          2.665257042708892        3.154422671946569       10.003374595808761        1.300047012426280       -0.019367100322053        4.866215998079797
