# total energy = -9505.843442551342 eV 

 CRYSTAL
 PRIMVEC
        8.364863528117699        0.000000000000000        0.000000000000000
       -4.182431764058849        7.244180936938131        0.000000000000000
        0.000000000000000        0.000000000000000       19.999945357962428
 PRIMCOORD
12 1
Se          4.132419917996939        7.239069168836097        7.900347599646972       -0.046051563509062        0.017129468241459        3.426520997743350
Se         -0.035006953865173        7.233931469657127        7.897746963576080        0.053111558832632       -0.079373589581583        3.437736411852001
Se          6.237575008609619        3.613245461774433        7.896719758334828        0.065793530839446        0.005651544382803        3.399493806351879
Se          2.069458871992790        3.602793564796051        7.886417592413598       -0.069075031269714        0.056791323320448        3.440470781285199
Se          4.152295670226099        7.227425278804957       12.107084311173121        0.034826122093603       -0.013199535304325       -3.420664279236645
Se         -0.033092236603586        7.219522155743592       12.124812802934613       -0.029492109093028        0.049568319983653       -3.435811426055447
Se          6.231690327117589        3.605098921184400       12.087485435926741       -0.069029522723435        0.006409505933256       -3.399312800608487
Se          2.083570396764725        3.589974411439210       12.132904135425362        0.063904797613657       -0.038332851261387       -3.437402682512623
Mo          2.059903688384622        1.193286260658219       10.037458141909767        0.012478854766360       -0.006329544589230        0.069920667477122
Mo          6.247018103046512        1.182102438121126        9.995420520249212        0.009812876707797        0.013500868729403       -0.046171376969886
Mo         -0.021913432984610        4.823811021022685        9.962144256648006       -0.060345103697096        0.014959970425068       -0.092077158864597
Mo          4.153611463259073        4.809585734106768       10.030022614719623        0.034065589438841       -0.026775480279566        0.057297059538135
