# total energy = -9530.233622493894 eV 

 CRYSTAL
 PRIMVEC
        6.638793177329500        0.000000000000000        0.000000000000000
       -3.319396588664750        5.749360861396781        0.000000000000000
        0.000000000000000        0.000000000000000       19.999981854470612
 PRIMCOORD
12 1
Se          3.289781596180001        5.742454524854405        8.261271077713177        0.113080509969243        0.068321954817449        0.921042325929767
Se         -0.019749081943920        5.745884789289130        8.194950861630291       -0.156456068112934       -0.056338294741107        1.577166548448587
Se          4.951261742601170        2.871043699795849        8.255090361265083        0.079718117559062       -0.032824260278194        0.802202028086289
Se          1.634672035691796        2.859882560706123        8.237712656244105       -0.018883218490997       -0.054994378518509        1.181436571308075
Se          3.306754334817161        5.729012296428948       11.746038676666570       -0.216120343388863        0.033274203532364       -1.270134013557780
Se         -0.026187383567294        5.737523893161602       11.738890688052539        0.093700811236073       -0.038769681883578       -1.204686553358398
Se          4.967681469766660        2.858393479396447       11.762107211672978       -0.100923300352006        0.005445341817178       -1.479168907690408
Se          1.643867428121715        2.867446801652372       11.752359471650704       -0.010168717544237        0.071920729519515       -1.290582263241995
Mo          1.632313272475891        0.951023055756076       10.025766705625605        0.167216396758796       -0.044926962484068       -0.620005092067949
Mo          4.944481543129164        0.953638076388627        9.966609747381057        0.073910507144669       -0.123939826131023        0.532593716193877
Mo         -0.025481015973226        3.814566910899496        9.984304122836594        0.089753909010495        0.227144981557747        0.125003749094311
Mo          3.302712637530803        3.821210351232050        9.962469795955675       -0.114828089568438       -0.054314064318205        0.725132405076486
