# total energy = -9527.640808287391 eV 

 CRYSTAL
 PRIMVEC
        7.037104892651799        0.000000000000000        0.000000000000000
       -3.518552446325899        6.094308764658774        0.000000000000000
        0.000000000000000        0.000000000000000       19.999937665154004
 PRIMCOORD
12 1
Se          3.495323666785745        6.067241244399678        8.176641584391627        0.037131631327969        0.047932326311491        2.387874046701270
Se         -0.019089554442297        6.086536986015330        8.233857469431820       -0.016379991335228       -0.043575075838111        2.017889308343491
Se          5.257570251923884        3.040920211104987        8.179194646046680        0.010228110053788       -0.058456627581738        2.339806994523959
Se          1.748973901600108        3.020098121438120        8.178790716225842       -0.062384246524994        0.020632854973641        2.413836543798160
Se          3.494022506091094        6.076787077186561       11.769678971164288       -0.010977329849588       -0.043771508207360       -2.131612594390119
Se         -0.032296089194336        6.070085642197288       11.806411954993441        0.102998952861099       -0.002883493483151       -2.328105898811236
Se          5.255588603186113        3.032859911160943       11.808792607578624        0.002909718747108       -0.017384007568104       -2.502477421753055
Se          1.739915036471797        3.028865650423874       11.826864596653444       -0.008683133474184        0.030077292433880       -2.523742511276411
Mo          1.745019048650437        0.991136816342607       10.026383309502060       -0.093461184314423        0.113267943473408       -0.264423680052222
Mo          5.260140202630680        0.989174871498536        9.985212023617112       -0.028685810781556        0.162942707175476        0.136411996026178
Mo         -0.019734856960953        4.052291518855925        9.971753560509915        0.026101079619174       -0.133084215718338        0.355781701041440
Mo          3.493363833073142        4.047561880657573        9.982673036171843        0.041202203670835       -0.075697938860662        0.098761515848543
