# total energy = -38122.60587773672 eV 

 CRYSTAL
 PRIMVEC
       26.555490215667398        0.000000000000000        0.000000000000000
       -3.319436276958425        5.749422964633285        0.000000000000000
        0.000000000000000        0.000000000000000       20.000028456517960
 PRIMCOORD
48 1
Mo          1.677157128903841        0.963903217201231       10.000008917160937       -0.567280227323472       -0.058728907528119        0.000000000000000
Se          1.621924364804274        2.867945143409691        8.304111578811899        0.211728897228166       -0.168697609951523        0.136892535421631
Se          1.621924364804274        2.867945143409691       11.695908911058996        0.211728897228166       -0.168697609951523       -0.136892535421631
Mo          0.000613431823982        3.803880118315780       10.000008917160937       -0.373324345745443        0.121490592165753        0.000000000000000
Se         -0.056834060159571        5.706814680582247        8.306626383735322        0.493648942106819        0.168775257301671        0.307327954775974
Se         -0.056834060159571        5.706814680582247       11.693391450586551        0.493648942106819        0.168775257301671       -0.307327954775974
Mo          4.979770502810640        0.929163324901094       10.000008917160937       -1.075050445629586       -0.346392542323856        0.000000000000000
Se          4.922320355278066        2.832100542716583        8.306626383735322        0.249050276054180       -0.139372365528184        0.147234031175470
Se          4.922320355278066        2.832100542716583       11.693391450586551        0.249050276054180       -0.139372365528184       -0.147234031175470
Mo          3.298377773217400        3.771939174684376       10.000008917160937       -0.427305709165993        0.241216121223006        0.000000000000000
Se          3.249667037514802        5.676360844402920        8.313684833034648        0.472701383965690        0.210866805953177        0.237471307796159
Se          3.249667037514802        5.676360844402920       11.686330345738206        0.472701383965690        0.210866805953177       -0.237471307796159
Mo          8.277532188655037        0.897225036818711       10.000008917160937       -0.865738129341958       -0.259448850323690        0.000000000000000
Se          8.228824108501460        2.801644050988234        8.313684833034648        0.203817609267707       -0.060779363214978        0.101357302759457
Se          8.228824108501460        2.801644050988234       11.686330345738206        0.203817609267707       -0.060779363214978       -0.101357302759457
Mo          6.595417149727931        3.748881042530112       10.000008917160937       -0.322267613476996        0.159248287393096        0.000000000000000
Se          6.564737591881770        5.657092180702431        8.323948530003001        0.339801002205484        0.142881922910709        0.081419417280685
Se          6.564737591881770        5.657092180702431       11.676069304318871        0.339801002205484        0.142881922910709       -0.081419417280685
Mo         11.574568909616547        0.874166904664447       10.000008917160937       -0.520071152654254       -0.138191971539674        0.000000000000000
Se         11.543889351770385        2.782375387287746        8.323948530003001        0.117176793355204        0.030418477975756        0.032420596901596
Se         11.543889351770385        2.782375387287746       11.676069304318871        0.117176793355204        0.030418477975756       -0.032420596901596
Mo          9.895993717535189        3.739090033287595       10.000008917160937       -0.146981034511411        0.031788362351880        0.000000000000000
Se          9.889208789785085        5.652678658228588        8.335462990560517        0.135320562246778        0.044271330885135       -0.101471202680369
Se          9.889208789785085        5.652678658228588       11.664560154859400        0.135320562246778        0.044271330885135        0.101471202680369
Mo         14.875153444070870        0.864375895421931       10.000008917160937       -0.054263670673738        0.016740974380287        0.000000000000000
Se         14.868363205222721        2.777961864813902        8.335462990560517        0.006505922344864        0.117023555538356       -0.047500380787488
Se         14.868363205222721        2.777961864813902       11.664560154859400        0.006505922344864        0.117023555538356        0.047500380787488
Mo         13.203700434465352        3.744432997918987       10.000008917160937        0.053583099363002       -0.106745566060963        0.000000000000000
Se         13.222121978027962        5.663959430472203        8.346034731215374       -0.107210164609697       -0.067481203708229       -0.282420124666858
Se         13.222121978027962        5.663959430472203       11.653980447557480       -0.107210164609697       -0.067481203708229        0.282420124666858
Mo         18.182854849902991        0.869716204504301       10.000008917160937        0.443246298774720        0.174250681039271        0.000000000000000
Se         18.201276393465601        2.789245292606539        8.346034731215374       -0.106473800335445        0.183453691804844       -0.122363482078843
Se         18.201276393465601        2.789245292606539       11.653980447557480       -0.106473800335445        0.183453691804844        0.122363482078843
Mo         16.520765306147517        3.763890205600007       10.000008917160937        0.242632542587133       -0.225088355220545        0.000000000000000
Se         16.560903929608500        5.688788813823852        8.353653501358249       -0.336631087702250       -0.168785798829340       -0.424746174825844
Se         16.560903929608500        5.688788813823852       11.646359021865582       -0.336631087702250       -0.168785798829340        0.424746174825844
Mo         21.499919721585155        0.889176067734342       10.000008917160937        0.879370381501578        0.302639031846663        0.000000000000000
Se         21.540058345046138        2.814074675958188        8.353653501358249       -0.200377985922402        0.219077370455267       -0.178892809870148
Se         21.540058345046138        2.814074675958188       11.646359021865582       -0.200377985922402        0.219077370455267        0.178892809870148
Mo         19.847647742562419        3.793759820994590       10.000008917160937        0.389561126570629       -0.299251601918842        0.000000000000000
Se         19.901887331327917        5.722439931025146        8.356866715674343       -0.492975055667288       -0.245840509434148       -0.494019695348255
Se         19.901887331327917        5.722439931025146       11.643151118647529       -0.492975055667288       -0.245840509434148        0.494019695348255
Mo         24.826802158000056        0.919045683128925       10.000008917160937        1.072056394661125        0.374594471274356        0.000000000000000
Se         24.881041746765554        2.847723137610460        8.356866715674343       -0.298418564122550        0.059277066966913       -0.169363268857263
Se         24.881041746765554        2.847723137610460       11.643151118647529       -0.298418564122550        0.059277066966913        0.169363268857263
Mo         23.182919058336445        3.828356313647561       10.000008917160937        0.503682162453943       -0.359876955985678        0.000000000000000
Se         23.240961393300829        5.758504942287044        8.355066253437721       -0.303589569109900       -0.139210643067114       -0.171851840718469
Se         23.240961393300829        5.758504942287044       11.644948925335131       -0.303589569109900       -0.139210643067114        0.171851840718469
