# total energy = -9512.876982589676 eV 

 CRYSTAL
 PRIMVEC
        8.364863528117699        0.000000000000000        0.000000000000000
       -4.182431764058849        7.244180936938131        0.000000000000000
        0.000000000000000        0.000000000000000       19.999945357962428
 PRIMCOORD
12 1
Se          4.128411475394265        7.238121429798361        8.202244725726620        0.066419337628389       -0.038336450807420        2.639466116475863
Se         -0.017124548614763        7.220981824429249        8.191093526157287       -0.068024992269697       -0.001906730955956        2.616979238184612
Se          6.253607106047610        3.590156765464123        8.189326030493795       -0.021240921142847        0.067416154769198        2.669983581967536
Se          2.056862224005798        3.617810167801727        8.184356465071740        0.017057477320792       -0.025986665477399        2.634778221988276
Se          4.152960676876585        7.238531308111240       11.873769864674156       -0.050643812916334        0.015042502873404       -2.840111497246458
Se         -0.025430021611831        7.238087133857896       11.811430719230859        0.036624095337266       -0.022650143414907       -2.660874159398831
Se          6.238533621969942        3.611946398468517       11.857879969916143        0.041483996703161       -0.023908441863997       -2.780098580226154
Se          2.066365545460092        3.600209658452215       11.851987760046939       -0.044160516289394        0.018532519863176       -2.804130177986577
Mo          2.053178338108015        1.191816554136329        9.970919834975355        0.027428540774190        0.023559800119623        0.188232603384989
Mo          6.246189145070875        1.184027193218945       10.028984535155784       -0.012535161950739       -0.006020240740792        0.082638892054701
Mo         -0.039066422135368        4.808611227505743       10.004010398606235        0.040380221623075        0.024712683292021        0.069395905087545
Mo          4.151490133868342        4.825525818045949        9.973177511641595       -0.032788007707429       -0.030454473436089        0.183740112824927
