# total energy = -9515.441131359097 eV 

 CRYSTAL
 PRIMVEC
        7.568240097473099        0.000000000000000        0.000000000000000
       -3.784120048736550        6.554285130414141        0.000000000000000
        0.000000000000000        0.000000000000000       20.000020487584848
 PRIMCOORD
12 1
Se          3.767663667468604        6.541034655651485        8.912317913463786       -0.255454896889248        0.002901748323749       -7.564001959388131
Se         -0.014133688382031        6.535638500461987        8.869818461196425       -0.144414815300057        0.211026985751661       -6.712051119795659
Se          5.652413528726730        3.256865736337920        8.858531944739063       -0.213021905585435        0.099326644575781       -6.765079631959092
Se          1.874868766986865        3.252352037943787        8.895259100284081       -0.284605049109107        0.049563949106327       -7.481257909167169
Se          3.769922787137700        6.529257717235807       11.108933001242494       -0.196669682176750       -0.017297104242441        7.721538148421502
Se         -0.021033652878897        6.527238510777801       11.140513753521232       -0.135518794389043        0.257434132986733        6.590135524087538
Se          5.662773692596160        3.257707324636760       11.135809335476640       -0.286906701687008        0.132677981237431        6.548305456744313
Se          1.868956457822719        3.263142077850755       11.093695863454252       -0.252196536397766        0.054046412359581        7.471171466960838
Mo          1.851800771169767        1.075477947635327        9.985183304617465        0.944896774603263       -0.356151940062014       -0.277831989026481
Mo          5.653529087317097        1.084045952249676       10.032760289166220       -0.218249474867595        0.032409798263496        0.251078877354408
Mo         -0.041586722511605        4.363861619859175       10.032814780494922       -0.022435970425922       -0.161079170771920        0.328896177497425
Mo          3.742521217040788        4.354394508321245        9.990811047953946        1.064576795114237       -0.304859180417952       -0.110903041729492
