# total energy = -9518.187178243443 eV 

 CRYSTAL
 PRIMVEC
        6.506022605555400        0.000000000000000        0.000000000000000
       -3.253011302777700        5.634378226976116        0.000000000000000
        0.000000000000000        0.000000000000000       19.999994935150113
 PRIMCOORD
12 1
Se          3.247347159497304        5.646663549462186        8.562951098073542       -2.157104065177501       -0.716527176062881       -4.694911288358399
Se         -0.067680851961072        5.620112471208914        8.538412983214430        1.306094763983183       -0.250432758841420       -4.345876165025195
Se          4.813486680140508        2.767347124909159        8.681136251714758       -0.902728092822471        0.359009465391639       -7.914583859073954
Se          1.608371414580386        2.799190201949789        8.736469973975007        1.119773005321046        1.103420781912361      -10.294057336664659
Se          3.230158898375687        5.619174302749193       11.399029146992309        0.350340987212019        2.214567218054032        8.925997416158937
Se          0.052018253140458        5.578098529029019       11.495294209270888       -2.842781846182347       -0.647369355234400        6.231696329631756
Se          4.780378832305358        2.849897491535227       11.307293577651716        2.960124218655086       -0.002738997420955       13.293478570697211
Se          1.615556015343700        2.844476022898017       11.224957259169372       -2.118022765451606       -2.782510276068504       13.576520902606978
Mo          1.572110097588322        0.912916634182147        9.963005524244389        2.161403980024779       -2.305574797525860        1.473209087900891
Mo          4.783357940056441        0.980885052342384       10.152362661576818        1.319249304962091       -3.934544984044815       -5.738366975790613
Mo         -0.048768494848983        3.690840600041156       10.008349248793808       -1.371786993312834        4.152715011789246       -2.178902144624226
Mo          3.225473260895166        3.767262943975052       10.161136683662670        0.175437502788555        2.809986382272420       -8.334204280348295
