# total energy = -9514.182722793632 eV 

 CRYSTAL
 PRIMVEC
        8.630457589390799        0.000000000000000        0.000000000000000
       -4.315228794695400        7.474192033852167        0.000000000000000
        0.000000000000000        0.000000000000000       20.000041178044860
 PRIMCOORD
12 1
Se          4.292782700596912        7.451783050721314        8.523236236483244       -0.040227498027088       -0.045543770407927        0.755566823898961
Se         -0.043904000802990        7.458246400410008        8.483740673416914        0.050095653477540       -0.120967629549193        0.954693453353909
Se          6.460165049844284        3.710547866335358        8.463210540903273        0.067848614514063        0.053565615853697        1.040435925420658
Se          2.110567183890654        3.722409567246217        8.495800874852330       -0.037042671118859        0.133575810862323        0.863007616565224
Se          4.280911506182705        7.441842489669853       11.507126328210425        0.063050933872458        0.059441617642724       -0.756526360027282
Se         -0.027494911788281        7.466720646717031       11.522456610026460       -0.048042369575940        0.115908467599307       -0.911531553978341
Se          6.445574398243660        3.717742215781874       11.528981235964038       -0.059862764528626       -0.023570598757723       -0.979575058199067
Se          2.109043908126127        3.731567345794319       11.494409348952455        0.068108038938895       -0.111555588003254       -0.788736126375496
Mo          2.119433252972235        1.223573631232532       10.027808936368752       -0.005987844826491       -0.039377748052785        0.330456066482024
Mo          6.447474825004844        1.229734914905598        9.998920205679784       -0.030060066035006        0.008088437047387        0.029582869075155
Mo         -0.038588501973684        4.977866697951236        9.962442713632463       -0.019403095782387       -0.058606522962984       -0.490401637363868
Mo          4.286630910427194        4.969111961772557        9.988645645919613       -0.008477188018990        0.029041908728427       -0.046972018851878
