# total energy = -38122.759635458446 eV 

 CRYSTAL
 PRIMVEC
       26.555490215667398        0.000000000000000        0.000000000000000
       -3.319436276958425        5.749422964633285        0.000000000000000
        0.000000000000000        0.000000000000000       20.000028456517960
 PRIMCOORD
48 1
Mo          1.667910507210746        1.019077559222322       10.000008917160937       -0.334615084813139       -0.470407187590286        0.000000000000000
Se          1.684321800164028        2.940157487953155        8.334878769775772       -0.148493615176714       -0.042803744545249        0.005855175844119
Se          1.684321800164028        2.940157487953155       11.665139064546102       -0.148493615176714       -0.042803744545249       -0.005855175844119
Mo          0.016642325718159        3.900831557544161       10.000008917160937       -0.412561711502926       -0.400252035400134        0.000000000000000
Se          0.024935605312512        5.820028702018702        8.331402656106540       -0.192287749101998       -0.059687672325147        0.024767704924245
Se          0.024935605312512        5.820028702018702       11.668620489313376       -0.192287749101998       -0.059687672325147       -0.024767704924245
Mo          4.995796741155796        1.026117419678496       10.000008917160937        0.142761852339453        0.032194596832787        0.000000000000000
Se          5.004090020750149        2.945311908604016        8.331402656106540       -0.033107853083536       -0.025098091828021       -0.004542627094098
Se          5.004090020750149        2.945311908604016       11.668620489313376       -0.033107853083536       -0.025098091828021        0.004542627094098
Mo          3.341920810524031        3.902703719604365       10.000008917160937        0.031256143759805       -0.003285357086732        0.000000000000000
Se          3.341580900249270        5.819848124685235        8.327870775907856       -0.023005727140916       -0.007805615573337        0.045871329096963
Se          3.341580900249270        5.819848124685235       11.672149713963037       -0.023005727140916       -0.007805615573337       -0.045871329096963
Mo          8.321075225961668        1.027989581738701       10.000008917160937       -0.032624228362912       -0.015765240294816        0.000000000000000
Se          8.320735315686907        2.945131331270550        8.327870775907856        0.001848109777699       -0.055276942882128        0.017247224818836
Se          8.320735315686907        2.945131331270550       11.672149713963037        0.001848109777699       -0.055276942882128       -0.017247224818836
Mo          6.664225080425746        3.899291339111652       10.000008917160937       -0.031496284902316        0.055545880392906        0.000000000000000
Se          6.655278535772089        5.814345827112549        8.324503539748511        0.056500531423039        0.028623590057265        0.101737311976407
Se          6.655278535772089        5.814345827112549       11.675508983475320        0.056500531423039        0.028623590057265       -0.101737311976407
Mo         11.643379495863384        1.024577201245987       10.000008917160937       -0.194850368767319       -0.074860530187045        0.000000000000000
Se         11.634430295660705        2.939629033697863        8.324503539748511        0.038612073189403       -0.081195731205755        0.036499396778253
Se         11.634430295660705        2.939629033697863       11.675508983475320        0.038612073189403       -0.081195731205755       -0.036499396778253
Mo          9.983371902540821        3.890806859987746       10.000008917160937       -0.098093542948925        0.098079144764791        0.000000000000000
Se          9.966392322096922        5.803864375124426        8.321516047099248        0.132803451127736        0.063517589304640        0.147703000601530
Se          9.966392322096922        5.803864375124426       11.678499131673604        0.132803451127736        0.063517589304640       -0.147703000601530
Mo         14.962534284625523        1.016092722122082       10.000008917160937       -0.345127301893131       -0.130595900967564        0.000000000000000
Se         14.945544081985540        2.929150237258761        8.321516047099248        0.072394326933332       -0.102268245016327        0.053167866017011
Se         14.945544081985540        2.929150237258761       11.678499131673604        0.072394326933332       -0.102268245016327       -0.053167866017011
Mo         13.299382521261425        3.877786703135004       10.000008917160937       -0.159449861970964        0.133535444524663        0.000000000000000
Se         13.275442746832001        5.789067655976256        8.319094186391579        0.199965580791152        0.093752233322264        0.183122533569775
Se         13.275442746832001        5.789067655976256       11.680928959028337        0.199965580791152        0.093752233322264       -0.183122533569775
Mo         18.278536936699062        1.003069909720318       10.000008917160937       -0.471686826205145       -0.176900461140685        0.000000000000000
Se         18.254597162269636        2.914350862561569        8.319094186391579        0.102953701425251       -0.116404433620618        0.066007189607569
Se         18.254597162269636        2.914350862561569       11.680928959028337        0.102953701425251       -0.116404433620618       -0.066007189607569
Mo         16.612474691607325        3.861046122103048       10.000008917160937       -0.210789672823891        0.161686465609834        0.000000000000000
Se         16.583085730585644        5.770879800727545        8.317389323919732        0.255358480477640        0.117885389702914        0.206472017356878
Se         16.583085730585644        5.770879800727545       11.682631165951163        0.255358480477640        0.117885389702914       -0.206472017356878
Mo         21.591629107044962        0.986329328688362       10.000008917160937       -0.573062126694769       -0.198585669108221        0.000000000000000
Se         21.562237490474264        2.896163007312859        8.317389323919732        0.127475351667073       -0.120767340523479        0.072914718445584
Se         21.562237490474264        2.896163007312859       11.682631165951163        0.127475351667073       -0.120767340523479       -0.072914718445584
Mo         19.923036123735674        3.841636714304416       10.000008917160937       -0.245974721079106        0.196354979009262        0.000000000000000
Se         19.890046238240750        5.750445351006589        8.316507681644572        0.291528261683410        0.142298282232443        0.214852788964259
Se         19.890046238240750        5.750445351006589       11.683510152677302        0.291528261683410        0.142298282232443       -0.214852788964259
Mo         24.902190539173311        0.966922576438752       10.000008917160937       -0.496509809872046       -0.150536357550645        0.000000000000000
Se         24.869200653678387        2.875731213140925        8.316507681644572        0.443932269404505        0.169729137000511        0.275802102174098
Se         24.869200653678387        2.875731213140925       11.683510152677302        0.443932269404505        0.169729137000511       -0.275802102174098
Mo         23.231640416235130        3.820780032289032       10.000008917160937       -0.177275842369878        0.288094808988448        0.000000000000000
Se         23.197128901150847        5.729049592539826        8.316507681644572        0.478572243546098        0.323350048391313        0.310849082127891
Se         23.197128901150847        5.729049592539826       11.683510152677302        0.478572243546098        0.323350048391313       -0.310849082127891
