# total energy = -9493.346885345596 eV 

 CRYSTAL
 PRIMVEC
        6.240481462007200        0.000000000000000        0.000000000000000
       -3.120240731003600        5.404412958134786        0.000000000000000
        0.000000000000000        0.000000000000000       20.000031670846408
 PRIMCOORD
12 1
Se          3.100082103736878        5.400153205488818        8.810682412660608       -0.007718198026813        0.279724064687873      -18.570034331935627
Se         -0.016741339618127        5.384896476410504        8.821070942150412       -0.299593558792011        0.039448196310866      -17.715473564358540
Se          4.666853574380885        2.681386984813844        8.825867376202110        0.704589024532818       -0.019614183446200      -18.189515779221654
Se          1.538726746953747        2.685819598796308        8.816950352241047       -1.065655373372090       -0.014695660902047      -18.348979782266323
Se          3.109916478472855        5.381156555870323       11.140920001799891       -0.351685674765909       -0.675932010119529       19.110601813924685
Se         -0.014580260887834        5.384314239490098       11.193984687815776       -0.326970677480010        0.872605806063174       17.950481497115728
Se          4.648358659471934        2.687913280326811       11.204415028531375       -0.789172699887256        0.128472683028745       17.462131600990872
Se          1.530337667724371        2.698864701244488       11.132840450451031        1.138929275089716       -0.049066440422430       19.145623597056243
Mo          1.530265278139411        0.890291423247649       10.013168274152530        1.498934529180440       -0.601319848608786       -0.305828229632218
Mo          4.662077733918011        0.886268808897239       10.011454013894916       -0.450580116707256        0.286705127109140        0.222966937054742
Mo         -0.028377341352185        3.594621538156563       10.036269288428588       -0.911695590433290       -0.160240733656579       -0.747137972640991
Mo          3.098673003022757        3.587015015302522        9.962365762666622        0.860619317772091       -0.086086742933796       -0.014835528976486
