# total energy = -9502.775919008584 eV 

 CRYSTAL
 PRIMVEC
        8.895998732938999        0.000000000000000        0.000000000000000
       -4.447999366469499        7.704157302693497        0.000000000000000
        0.000000000000000        0.000000000000000       20.000011039389658
 PRIMCOORD
12 1
Se          4.403359244827612        7.690453906245278        9.058633602574844       -0.095052954992461        0.011406704269281      -12.433873296464801
Se         -0.027549128876165        7.674856551666815        9.051668035566951        0.028076716170625       -0.034525559999818      -11.273910588350018
Se          6.624195510912928        3.827585298035348        9.062709749194276        0.048588729241717       -0.145147837138708      -13.889040688315209
Se          2.178304496143135        3.833254718027849        9.039233208538048       -0.298968523334361        0.043707487710053      -14.845165732548670
Se          4.422960688435770        7.695363607945986       10.993303381418979        0.173272375849490        0.049059498440795       12.469734288042995
Se         -0.030057800518854        7.688562616914655       11.007691769769634       -0.050408813982442        0.058239112157151       11.315508999194954
Se          6.623068387873465        3.839816406693265       10.972556133174017        0.050343250822549        0.090688762537445       13.920653444242745
Se          2.213556670322153        3.820690009417446       10.934563991385255        0.204668644794165       -0.138131550588399       14.855224663938891
Mo          2.201676953614186        1.256235117073881        9.997019132920180        0.091406614860669       -0.132701378286648       -0.010846717750663
Mo          6.643217825003571        1.251386797764430        9.973927789009091       -0.112278839645528       -0.177922989324589       -0.038542910483476
Mo         -0.039876314320399        5.129206911044810       10.031540056003351        0.036527164704796        0.232794469057103       -0.065188549995411
Mo          4.398559853511191        5.115283783427887        9.993143146272239       -0.076174364489220        0.142533024055904       -0.004552654400905
