# total energy = -9512.033430534104 eV 

 CRYSTAL
 PRIMVEC
        8.895998732938999        0.000000000000000        0.000000000000000
       -4.447999366469499        7.704157302693497        0.000000000000000
        0.000000000000000        0.000000000000000       20.000011039389658
 PRIMCOORD
12 1
Se          4.391061416179197        7.699895229700545        8.646256912509836        0.017040765142780       -0.022042077245700        0.526822872571110
Se         -0.019186890067203        7.683034643302006        8.630377554771540       -0.061364289445399       -0.043437007536689        0.551913508196634
Se          6.620355997859792        3.845546319477151        8.644555997552098        0.041152581357661        0.067777652035119        0.650800236825052
Se          2.200580076970414        3.835107754563921        8.601953949219926       -0.030010186611401        0.032422653785044        0.568515128723344
Se          4.405549439715661        7.689124844034576       11.384761130463479       -0.050651269118832        0.001961752588180       -0.582458741614850
Se         -0.010355832125014        7.672868295950004       11.360475053922555        0.056940190259971        0.038006578124506       -0.568104780475542
Se          6.621002736967676        3.834536631445266       11.367026956989365       -0.006906757506722       -0.081528174992979       -0.678702375013060
Se          2.193094983636520        3.831665003054273       11.353986312446750       -0.002543079272568        0.028682725456384       -0.527925876319904
Mo          2.200810483337598        1.252698957577538       10.000811497180031       -0.032701875713060        0.068639743310109       -0.038174985456781
Mo          6.644263104854693        1.253501376663249       10.028802757193226        0.022281704167350       -0.133109155430141        0.193416978114749
Mo         -0.014235377172449        5.108218581234187        9.991838992857989        0.128675543158767        0.049748811506183       -0.090763324562421
Mo          4.389530414797258        5.130180133306194       10.006182901214981       -0.081913583528979       -0.007122987379154       -0.005338383877901
