# total energy = -38121.54289393514 eV 

 CRYSTAL
 PRIMVEC
       13.277745107833699        0.000000000000000        0.000000000000000
       -6.638872553916849       11.498859207011680        0.000000000000000
        0.000000000000000        0.000000000000000       20.000015178772852
 PRIMCOORD
48 1
Mo          1.610840103188255        0.930011772813485       10.000007589386426        0.790475221330470        0.456381042250444        0.000000000000000
Se          1.664864592483009        2.877680386122754        8.330514374958828       -0.664107758510378       -0.383419272595996       -0.168029637051904
Se          1.664864592483009        2.877680386122754       11.669498148265003       -0.664107758510378       -0.383419272595996        0.168029637051904
Mo         -0.048878035290957        3.804727238453660       10.000007589386426        0.790489362404172        0.456366386955880        0.000000000000000
Se          0.005146454003796        5.752394523988419        8.330514374958828       -0.664102616301759       -0.383424671915046       -0.168038635916988
Se          0.005146454003796        5.752394523988419       11.669498148265003       -0.664102616301759       -0.383424671915046        0.168038635916988
Mo         -1.708596173770170        6.679441376319325       10.000007589386426        0.790484991526846        0.456386698679925        0.000000000000000
Se         -1.654571684475416        8.627108661854084        8.330514374958828       -0.664106987179085       -0.383417215712548       -0.168038635916988
Se         -1.654571684475416        8.627108661854084       11.669498148265003       -0.664106987179085       -0.383417215712548        0.168038635916988
Mo         -3.368314312249382        9.554155514184989       10.000007589386426        0.790469307790558        0.456400582643197        0.000000000000000
Se         -3.314289822954628       11.501828110817790        8.330514374958828       -0.664104930295637       -0.383424671915046       -0.168029637051904
Se         -3.314289822954628       11.501828110817790       11.669498148265003       -0.664104930295637       -0.383424671915046        0.168029637051904
Mo          4.901086585301618        0.913159658722622       10.000007589386426        1.310609623150738        0.756646430598538        0.000000000000000
Se          4.937117074426236        2.850438436485012        8.304277550625747        0.239694798803051        0.138387889688061        0.726807222423722
Se          4.937117074426236        2.850438436485012       11.695738955921616        0.239694798803051        0.138387889688061       -0.726807222423722
Mo          3.241368446822405        3.787873796588286       10.000007589386426        1.310579798340748        0.756698109795160        0.000000000000000
Se          3.277398935947023        5.725152574350677        8.304277550625747        0.239722309619163        0.138366549522292        0.726813135963634
Se          3.277398935947023        5.725152574350677       11.695738955921616        0.239722309619163        0.138366549522292       -0.726813135963634
Mo          1.581650308343193        6.662589262228462       10.000007589386426        1.310581855224195        0.756681140506717        0.000000000000000
Se          1.617680797467811        8.599868039990852        8.304277550625747        0.239694798803051        0.138387889688061        0.726805422650705
Se          1.617680797467811        8.599868039990852       11.695738955921616        0.239694798803051        0.138387889688061       -0.726805422650705
Mo         -0.078067830136019        9.537303400094126       10.000007589386426        1.310595996297898        0.756656715015776        0.000000000000000
Se         -0.042037341011401       11.474578194532985        8.304277550625747        0.239690170815293        0.138422342485809        0.726813135963634
Se         -0.042037341011401       11.474578194532985       11.695738955921616        0.239690170815293        0.138422342485809       -0.726813135963634
Mo          8.360280423941568        0.993847187968417       10.000007589386426       -2.175815276790190       -1.256241051421171        0.000000000000000
Se          8.264254443547204        2.854883825547115        8.361358576844324        0.283086812014322        0.163437644755063       -1.057527855539198
Se          8.264254443547204        2.854883825547115       11.638657929703038        0.283086812014322        0.163437644755063        1.057527855539198
Mo          6.700562285462356        3.868562653608592       10.000007589386426       -2.175819133446654       -1.256209683948595        0.000000000000000
Se          6.604536305067992        5.729599291187290        8.361358576844324        0.283084755130875        0.163441501411527       -1.057527855539198
Se          6.604536305067992        5.729599291187290       11.638657929703038        0.283084755130875        0.163441501411527        1.057527855539198
Mo          5.040844146983143        6.743278119248767       10.000007589386426       -2.175844330268888       -1.256190914887136        0.000000000000000
Se          4.944818166588780        8.604314756827465        8.361358576844324        0.283098381983715        0.163428903000410       -1.057523998882733
Se          4.944818166588780        8.604314756827465       11.638657929703038        0.283098381983715        0.163428903000410        1.057523998882733
Mo          3.381126008503931        9.617992257114432       10.000007589386426       -2.175804735262521       -1.256201456414805        0.000000000000000
Se          3.285098700335056       11.479027566918617        8.361358576844324        0.283082698247427        0.163455899595661       -1.057523998882733
Se          3.285098700335056       11.479027566918617       11.638657929703038        0.283082698247427        0.163455899595661        1.057523998882733
Mo         11.544607677780720        0.915845746557937       10.000007589386426        1.462779146158804        0.844481781573253        0.000000000000000
Se         11.621817765582774        2.876899654710414        8.320492332951433       -0.552668384421916       -0.319091785433850        0.160890708826031
Se         11.621817765582774        2.876899654710414       11.679518862497885       -0.552668384421916       -0.319091785433850       -0.160890708826031
Mo          9.884893522625040        3.790559884423602       10.000007589386426        1.462726952741321        0.844514434597984        0.000000000000000
Se          9.962103610427093        5.751613792576078        8.320492332951433       -0.552682268385187       -0.319091271212988        0.160890194605169
Se          9.962103610427093        5.751613792576078       11.679518862497885       -0.552682268385187       -0.319091271212988       -0.160890194605169
Mo          8.225175384145828        6.665275350063776       10.000007589386426        1.462734408943818        0.844501321966006        0.000000000000000
Se          8.302385471947881        8.626329258216252        8.320492332951433       -0.552675840624413       -0.319079187022734        0.160890708826031
Se          8.302385471947881        8.626329258216252       11.679518862497885       -0.552675840624413       -0.319079187022734       -0.160890708826031
Mo          6.565457245666615        9.539989487929441       10.000007589386426        1.462732352060371        0.844563028469435        0.000000000000000
Se          6.642667333468668       11.501048707179960        8.320492332951433       -0.552693581244149       -0.319097698973762        0.160912306102231
Se          6.642667333468668       11.501048707179960       11.679518862497885       -0.552693581244149       -0.319097698973762       -0.160912306102231
