# total energy = -9513.95255438311 eV 

 CRYSTAL
 PRIMVEC
        8.364863528117699        0.000000000000000        0.000000000000000
       -4.182431764058849        7.244180936938131        0.000000000000000
        0.000000000000000        0.000000000000000       19.999945357962428
 PRIMCOORD
12 1
Se          4.169344098582756        7.213990471492447        8.202274839235322       -0.020688133716296       -0.004165188981457        2.538047364323408
Se         -0.028306698179150        7.214910606480540        8.209244443526950        0.015617658907449        0.022370664376460        2.497649659191028
Se          6.228069177696266        3.604647218553881        8.214075988700790       -0.033278060188828        0.007113731403640        2.476060867635101
Se          2.060700023392499        3.596141825318491        8.196081494279104        0.024202576197008        0.010167174881651        2.534165768147293
Se          4.171896218445185        7.216138568446469       11.785356603127363       -0.007625895382100        0.062369591230430       -2.527152566922157
Se         -0.015243290807289        7.216550956218405       11.741269589902419       -0.015379831758816       -0.016010009425085       -2.320754597369394
Se          6.259158865971221        3.597850766937285       11.755338453870358        0.037000505008182        0.005258936754736       -2.402821675825653
Se          2.068690141034557        3.616315366689252       11.755721564619947       -0.076468755932663       -0.025437734707312       -2.416214043953193
Mo          2.040587545525492        1.200111989297163       10.006722287362052        0.056906508793516       -0.057021694266583       -0.125017633057582
Mo          6.246113024812769        1.187460133210885        9.997399646959964       -0.026345591639011       -0.003789036420971       -0.069943807415908
Mo         -0.035036230887521        4.813254563250200       10.024802939878077        0.022757358464615        0.015746728343788       -0.107256701597700
Mo          4.156879615439508        4.816500966785463        9.963987872569605        0.023301918357376       -0.016603420299727       -0.076762376044813
