# total energy = -38121.50308733613 eV 

 CRYSTAL
 PRIMVEC
       13.277745107833699        0.000000000000000        0.000000000000000
       -6.638872553916849       11.498859207011680        0.000000000000000
        0.000000000000000        0.000000000000000       20.000015178772852
 PRIMCOORD
48 1
Mo          1.576044444358666        0.950776838387626       10.000007589386426        0.968365300519897       -0.205048911121546        0.000000000000000
Se          1.629921550682723        2.871101263421823        8.341261381849106        0.101760966136055       -0.171700659785068       -0.305154600303118
Se          1.629921550682723        2.871101263421823       11.658757780247276        0.101760966136055       -0.171700659785068        0.305154600303118
Mo          0.028280269305175        3.876432373134005       10.000007589386426       -0.895860158990823       -1.230760379271890        0.000000000000000
Se         -0.019810395700888        5.735834520289928        8.381577927094533       -0.112030213858795       -0.020413025555175       -1.619873619471797
Se         -0.019810395700888        5.735834520289928       11.618438579452830       -0.112030213858795       -0.020413025555175        1.619873619471797
Mo         -1.620033613900919        6.692651404927108       10.000007589386426       -1.345599524588859        0.171494714329873        0.000000000000000
Se         -1.678895185738457        8.599238674872741        8.325284271160850       -0.084168956229309        0.162952220261421        0.126664168257413
Se         -1.678895185738457        8.599238674872741       11.674728252062980       -0.084168956229309        0.162952220261421       -0.126664168257413
Mo         -3.390474868834357        9.510105267015240       10.000007589386426        0.709190015694742        0.925730991748647        0.000000000000000
Se         -3.348531799813221       11.482708157862511        8.278886518656035        0.016436041409176       -0.014085280738962        1.120090536703274
Se         -3.348531799813221       11.482708157862511       11.721128660116815        0.016436041409176       -0.014085280738962       -1.120090536703274
Mo          5.035772048351951        0.978447659192352       10.000007589386426       -1.918213250692044       -0.809892972407421        0.000000000000000
Se          4.961653019611002        2.852747436359264        8.357484130821858       -0.134653874899314        0.104280905469836       -0.762166077330262
Se          4.961653019611002        2.852747436359264       11.642528392401973       -0.134653874899314        0.104280905469836        0.762166077330262
Mo          3.298470717433155        3.773997225176090       10.000007589386426        0.042028813706353        0.706479300421193        0.000000000000000
Se          3.294751621028451        5.727288963538527        8.287943268594089        0.010240194244042        0.091047174478195        0.908441857929565
Se          3.294751621028451        5.727288963538527       11.712067926855230        0.010240194244042        0.091047174478195       -0.908441857929565
Mo          1.553789615783426        6.653916239124026       10.000007589386426        2.202390725154475        1.207976281322456        0.000000000000000
Se          1.627718772769333        8.616669698650304        8.298946535964951        0.102297555605456       -0.067457292438151        0.696741499959235
Se          1.627718772769333        8.616669698650304       11.701068642807900        0.102297555605456       -0.067457292438151       -0.696741499959235
Mo         -0.037521579900227        9.608357925264187       10.000007589386426        0.068298557768233       -0.775061193884337        0.000000000000000
Se         -0.025606131440457       11.493137826644714        8.369675756379872       -0.071730982021471       -0.214821678602114       -1.228496007706477
Se         -0.025606131440457       11.493137826644714       11.630338094618470       -0.071730982021471       -0.214821678602114        1.228496007706477
Mo          8.214226555529908        0.886778106967868       10.000007589386426        1.687898868851925        1.222989987827594        0.000000000000000
Se          8.268349300138460        2.860869433041726        8.280611297745544        0.075642403007576        0.002573161192989        1.032655249559123
Se          8.268349300138460        2.860869433041726       11.719407864350840        0.075642403007576        0.002573161192989       -1.032655249559123
Mo          6.555198859796302        3.825492304027801       10.000007589386426        1.251079302409336        0.187231929587716        0.000000000000000
Se          6.609075966120360        5.745816729061998        8.341261381849106        0.078997437021097       -0.177855883502110       -0.294208637926107
Se          6.609075966120360        5.745816729061998       11.658757780247276        0.078997437021097       -0.177855883502110        0.294208637926107
Mo          5.007434684742813        6.751147838774179       10.000007589386426       -1.274720349425140       -1.396407373960142        0.000000000000000
Se          4.959344019736749        8.610548658155594        8.381577927094533       -0.186127126065906       -0.058696511613818       -1.562138957980178
Se          4.959344019736749        8.610548658155594       11.618438579452830       -0.186127126065906       -0.058696511613818        1.562138957980178
Mo          3.359120801536718        9.567366870567284       10.000007589386426       -1.579431177124431       -0.089976823754133        0.000000000000000
Se          3.300259229699180       11.473947501640362        8.325284271160850       -0.050137562477785        0.221933353122306        0.198765903520319
Se          3.300259229699180       11.473947501640362       11.674728252062980       -0.050137562477785        0.221933353122306       -0.198765903520319
Mo         11.598058568486815        0.992202075349556       10.000007589386426       -0.105313975181410       -1.208485102865315        0.000000000000000
Se         11.593987611836752        2.867431294674017        8.375998618600223        0.519952367635153        0.289632843586415       -0.838702453306266
Se         11.593987611836752        2.867431294674017       11.624017887947140        0.519952367635153        0.289632843586415        0.838702453306266
Mo         10.014926463789587        3.853163124832526       10.000007589386426       -1.968292191991572       -0.789224893304740        0.000000000000000
Se          9.940807435048638        5.727461574224929        8.357484130821858        0.323989482033096        0.205774733868130       -0.447453653866854
Se          9.940807435048638        5.727461574224929       11.642528392401973        0.323989482033096        0.205774733868130        0.447453653866854
Mo          8.277625132870792        6.648711363041754       10.000007589386426       -0.065782475090915        0.943290862851523        0.000000000000000
Se          8.273904708691578        8.602004429178702        8.287943268594089       -0.362570187749923       -0.246984907962325        0.575091756436721
Se          8.273904708691578        8.602004429178702       11.712067926855230       -0.362570187749923       -0.246984907962325       -0.575091756436721
Mo          6.532944031221064        9.528630376989689       10.000007589386426        2.250596616964501        1.201355430614956        0.000000000000000
Se          6.606873188206970       11.491387819839501        8.298946535964951       -0.241214321449990       -0.137025204404004        0.414855907878330
Se          6.606873188206970       11.491387819839501       11.701068642807900       -0.241214321449990       -0.137025204404004       -0.414855907878330
