# total energy = -38121.870220771605 eV 

 CRYSTAL
 PRIMVEC
       13.277745107833699        0.000000000000000        0.000000000000000
       -6.638872553916849       11.498859207011680        0.000000000000000
        0.000000000000000        0.000000000000000       20.000015178772852
 PRIMCOORD
48 1
Mo          1.656887323222222        0.876683037362382       10.000007589386426       -0.873008183887618        0.418110411713348        0.000000000000000
Se          1.614326839053572        2.796876012720011        8.330534291576488        0.013062495444626        0.312919078207503       -0.034621462190564
Se          1.614326839053572        2.796876012720011       11.669478231647341        0.013062495444626        0.312919078207503        0.034621462190564
Mo          0.022426111487131        3.871129241737936       10.000007589386426       -1.258877461780176       -1.329050868810926        0.000000000000000
Se         -0.069656378610206        5.784759027688763        8.330422758517582        0.182855138721583       -0.380417765425037       -0.022012766656571
Se         -0.069656378610206        5.784759027688763       11.669588436931738        0.182855138721583       -0.380417765425037        0.022012766656571
Mo         -1.753737851587783        6.708149189016972       10.000007589386426        1.107835625122275        0.222456829959729        0.000000000000000
Se         -1.619097532870817        8.623940591871353        8.330586074782408       -0.223300666394120       -0.021599847304459        0.019276340339926
Se         -1.619097532870817        8.623940591871353       11.669427776215931       -0.223300666394120       -0.021599847304459       -0.019276340339926
Mo         -3.322690652284355        9.500690017959274       10.000007589386426        0.482523259538570        0.907565625580873        0.000000000000000
Se         -3.364426588481809       11.420888304414946        8.330534291576488        0.589700771123536        0.325141593874202        0.187847709069851
Se         -3.364426588481809       11.420888304414946       11.669478231647341        0.589700771123536        0.325141593874202       -0.187847709069851
Mo          5.001581854699279        0.996413776097761       10.000007589386426       -1.807110948378563       -0.741523966381107        0.000000000000000
Se          4.909498036827431        2.910044889823099        8.330422758517582        0.117658875413243       -0.238032836977363        0.005363323589704
Se          4.909498036827431        2.910044889823099       11.669588436931738        0.117658875413243       -0.238032836977363       -0.005363323589704
Mo          3.225415236075343        3.833435051151307       10.000007589386426        1.068671021616751       -0.313412730234935        0.000000000000000
Se          3.360056882566820        5.749225126231179        8.330586074782408       -0.300127320046671       -0.044575492524954       -0.003420082952552
Se          3.360056882566820        5.749225126231179       11.669427776215931       -0.300127320046671       -0.044575492524954        0.003420082952552
Mo          1.656463763153282        6.625975880093611       10.000007589386426       -0.396784387017855        1.018473809518984        0.000000000000000
Se          1.614726499181318        8.546175494323792        8.330534291576488        0.157478596296838        0.282405726482725        0.008584660179129
Se          1.614726499181318        8.546175494323792       11.669478231647341        0.157478596296838        0.282405726482725       -0.008584660179129
Mo          0.022756727340316        9.620260095978850       10.000007589386426       -0.633811922210187       -0.436460383170547        0.000000000000000
Se         -0.069967077845730       11.533908470772827        8.330422758517582        0.412611076705669       -0.159262171356367       -0.452227166127949
Se         -0.069967077845730       11.533908470772827       11.669588436931738        0.412611076705669       -0.159262171356367        0.452227166127949
Mo          8.204569651512982        0.958719585511132       10.000007589386426        1.820992854766640       -0.102962443179904        0.000000000000000
Se          8.339211298004457        2.874509660591004        8.330586074782408       -0.237695250981520       -0.091422555707388        0.007234316195757
Se          8.339211298004457        2.874509660591004       11.669427776215931       -0.237695250981520       -0.091422555707388       -0.007234316195757
Mo          6.635618178590919        3.751260414453435       10.000007589386426       -0.289606104101596        1.055292537452482        0.000000000000000
Se          6.593882242393465        5.671461356458129        8.330534291576488        0.111900115980732        0.286151054130434        0.003343464044128
Se          6.593882242393465        5.671461356458129       11.669478231647341        0.111900115980732        0.286151054130434       -0.003343464044128
Mo          5.001911142777953        6.745545958113185       10.000007589386426       -0.739843749714821       -0.762170448207588        0.000000000000000
Se          4.909187337591908        8.659191677358141        8.330422758517582        0.197654158016874       -0.261856689509575       -0.011949464389026
Se          4.909187337591908        8.659191677358141       11.669588436931738        0.197654158016874       -0.261856689509575        0.011949464389026
Mo          3.225510835840120        9.583297509147661       10.000007589386426        0.849376135736897       -0.286200676443608        0.000000000000000
Se          3.359967921674598       11.499067667609872        8.330584747007897       -1.118048565660636       -0.136843684439750       -0.026422210547435
Se          3.359967921674598       11.499067667609872       11.669427776215931       -1.118048565660636       -0.136843684439750        0.026422210547435
Mo         11.614768610705024        0.876546276587771       10.000007589386426        0.083393254059120        0.788524010269959        0.000000000000000
Se         11.573037985605612        2.796747218592465        8.330534291576488        0.628090186679733        0.600392194173903        0.298046268218528
Se         11.573037985605612        2.796747218592465       11.669478231647341        0.628090186679733        0.600392194173903       -0.298046268218528
Mo          9.981065558215590        3.870830492473010       10.000007589386426       -0.678440636594349       -0.607836312481319        0.000000000000000
Se          9.888341753029543        5.784477539492477        8.330422758517582       -0.069237525062077       -0.189131204341174       -0.126670081797325
Se          9.888341753029543        5.784477539492477       11.669588436931738       -0.069237525062077       -0.189131204341174        0.126670081797325
Mo          8.204665251277758        6.708583371281998       10.000007589386426        0.909599111979290       -0.287168954326582        0.000000000000000
Se          8.339122337112235        8.624349546420675        8.330584747007897       -0.656827676657911       -0.441752487170876       -0.350481112396889
Se          8.339122337112235        8.624349546420675       11.669427776215931       -0.656827676657911       -0.441752487170876        0.350481112396889
Mo          6.635194618521979        9.500555912733684       10.000007589386426       -0.168826679387862        0.852059083083903        0.000000000000000
Se          6.594283230295723       11.420767476934467        8.330535619350998        0.456184609881195       -0.039963188504067       -0.001712098359724
Se          6.594283230295723       11.420767476934467       11.669478231647341        0.456184609881195       -0.039963188504067        0.001712098359724
