# total energy = -9526.406389288755 eV 

 CRYSTAL
 PRIMVEC
        6.771563749103600        0.000000000000000        0.000000000000000
       -3.385781874551800        5.864343495817446        0.000000000000000
        0.000000000000000        0.000000000000000       19.999962507379962
 PRIMCOORD
12 1
Se          3.373460337153931        5.866082433388215        8.581958246335821       -0.311023145889647       -0.073002650212970       -2.031660914356689
Se          0.012274813608000        5.839917788218053        8.472583271503925       -0.243508517825394       -0.235179939635495       -0.283318211402181
Se          5.072098300583695        2.963391365417590        8.394983182408321       -0.015905365479686       -0.312587662862003        0.501812198289613
Se          1.699989567554085        2.916586316783786        8.504065625686255       -0.299987966193094       -0.446421869707435       -0.375608000593178
Se          3.294157876931804        5.851995549320955       11.399146810315639        1.156530026751114       -0.606792444131645        7.792537651266909
Se         -0.005784269754484        5.814284710802197       11.508576634813902       -0.652313074600787       -0.063417573346999        6.295652292221172
Se          5.014548134592814        2.886861183394346       11.423682894404140        0.319632488670147        0.774252067358124        6.266614240149209
Se          1.603633601186216        2.971823316597974       11.655642810629685        1.379944850176578       -1.327094001320934        3.753740301010092
Mo          1.683338292295040        0.907251402479401       10.164201154794993        0.401773614930521        2.166437430931568       -4.079100695861036
Mo          5.009118017622407        0.934221186579331       10.190187030682177       -0.288674078789387        0.980612241677536       -7.388158736339529
Mo          0.033219260283978        3.873787482102074       10.188831363619608       -1.073676704596998       -0.100310863305473       -6.096907985977053
Mo          3.326972197703585        3.884292208946059       10.129749469908678       -0.372792127153368       -0.756495249665137       -4.355602138407329
