# total energy = -38121.55892403254 eV 

 CRYSTAL
 PRIMVEC
       13.277745107833699        0.000000000000000        0.000000000000000
       -6.638872553916849       11.498859207011680        0.000000000000000
        0.000000000000000        0.000000000000000       20.000015178772852
 PRIMCOORD
48 1
Mo          1.671338820997588        0.942365386861813       10.000007589386426       -0.538993709041188        0.414764119454480        0.000000000000000
Se          1.665038530943921        2.870053649332815        8.324154335052175       -0.556410626744454       -0.093423646191504        0.060010088805563
Se          1.665038530943921        2.870053649332815       11.675858188171656       -0.556410626744454       -0.093423646191504       -0.060010088805563
Mo         -0.051327779263353        3.852784709096953       10.000007589386426        0.566699414859946       -0.851076149906366        0.000000000000000
Se          0.021869773967113        5.719666210072120        8.316098727095250       -1.015223676561293        0.351165797474520        0.060498341513945
Se          0.021869773967113        5.719666210072120       11.683917779452111       -1.015223676561293        0.351165797474520       -0.060498341513945
Mo         -1.759651759258812        6.744668299161558       10.000007589386426        1.452518125969855       -1.561931469862398        0.000000000000000
Se         -1.646570515273436        8.577662339072511        8.315858399908800       -0.908927025312776        0.602127432472413        0.065311963002269
Se         -1.646570515273436        8.577662339072511       11.684158106638563       -0.908927025312776        0.602127432472413       -0.065311963002269
Mo         -3.427282106047782        9.608711113284057       10.000007589386426        1.754605913052552       -1.193776329331289        0.000000000000000
Se         -3.335556787293846       11.453108080693617        8.323560819845854       -0.163894272880437        0.489840365293095       -0.176471343831422
Se         -3.335556787293846       11.453108080693617       11.676458342250530       -0.163894272880437        0.489840365293095        0.176471343831422
Mo          4.927826636174284        0.978070571231289       10.000007589386426        0.143614173418066       -0.868483297413255        0.000000000000000
Se          5.001024189404750        2.844950744431944        8.316098727095250       -0.978370238719616        0.387779608394548        0.042937699079776
Se          5.001024189404750        2.844950744431944       11.683917779452111       -0.978370238719616        0.387779608394548       -0.042937699079776
Mo          3.219502656178825        3.869954161295893       10.000007589386426        1.999986194815291       -1.209589649276694        0.000000000000000
Se          3.332583900164201        5.702946873432335        8.315858399908800       -0.836104352401474        0.622945149845909        0.049363402970182
Se          3.332583900164201        5.702946873432335       11.684158106638563       -0.836104352401474        0.622945149845909       -0.049363402970182
Mo          1.551872309389855        6.733995647643881       10.000007589386426        2.073149281937177       -1.188514050140950        0.000000000000000
Se          1.643597628143791        8.578389959504420        8.323560819845854       -0.280486654226083        0.529387034899016        0.044410941849143
Se          1.643597628143791        8.578389959504420       11.676458342250530       -0.280486654226083        0.529387034899016       -0.044410941849143
Mo         -0.070778348071818        9.575980143818736       10.000007589386426        1.032159283537813       -0.316959825740378        0.000000000000000
Se         -0.050069049027130       11.470888309167517        8.335034119393534       -0.162571182602747        0.232139094568601       -0.089942628066816
Se         -0.050069049027130       11.470888309167517       11.664978403830299       -0.162571182602747        0.232139094568601        0.089942628066816
Mo          8.198658399390974        0.995238695655718       10.000007589386426        0.761700450339804       -1.233876814805486        0.000000000000000
Se          8.311738315601840        2.828232735566671        8.315858399908800       -0.866506889530511        0.644296628474067        0.040376107856180
Se          8.311738315601840        2.828232735566671       11.684158106638563       -0.866506889530511        0.644296628474067       -0.040376107856180
Mo          6.531026724827491        3.859280182003706       10.000007589386426        2.113170063177778       -1.203100181999411        0.000000000000000
Se          6.622752043581428        5.703674493864245        8.323560819845854       -0.340418324350205        0.515426966939929        0.044621001071233
Se          6.622752043581428        5.703674493864245       11.676458342250530       -0.340418324350205        0.515426966939929       -0.044621001071233
Mo          4.908376067365818        6.701266005953070       10.000007589386426        1.000907510655334       -0.459441684820522        0.000000000000000
Se          4.929085366410507        8.596168860203809        8.335034119393534        0.459574096692464        0.075958648837650       -0.110376479566898
Se          4.929085366410507        8.596168860203809       11.664978403830299        0.459574096692464        0.075958648837650        0.110376479566898
Mo          3.310611887559759        9.538935234967878       10.000007589386426       -0.766662938767650        0.584839069984624        0.000000000000000
Se          3.249141238808531       11.496077519411587        8.344056347194305       -0.154186811449332       -0.143011249457479       -0.001987720741707
Se          3.249141238808531       11.496077519411587       11.655958831578547       -0.154186811449332       -0.143011249457479        0.001987720741707
Mo         11.510178484716107        0.984566044138041       10.000007589386426        0.970150675352443       -0.757531918922744        0.000000000000000
Se         11.601907786793575        2.828960355998580        8.323560819845854       -0.312353949480266        0.627801451665772        0.021741772262346
Se         11.601907786793575        2.828960355998580       11.676458342250530       -0.312353949480266        0.627801451665772       -0.021741772262346
Mo          9.887530482803456        3.826550540312896       10.000007589386426        1.109795320827007       -0.289964773152777        0.000000000000000
Se          9.908239781848144        5.721454722338144        8.335034119393534        0.118197007545230        0.074313399189974       -0.312610288579927
Se          9.908239781848144        5.721454722338144       11.664978403830299        0.118197007545230        0.074313399189974        0.312610288579927
Mo          8.289766302997394        6.664219769327705       10.000007589386426       -0.813607446803416        0.659602669539199        0.000000000000000
Se          8.228295654246168        8.621362053771414        8.344056347194305        0.588050636377673       -0.505954504442716       -0.677516838815930
Se          8.228295654246168        8.621362053771414       11.655958831578547        0.588050636377673       -0.505954504442716        0.677516838815930
Mo          6.683309183469237        9.517654992883553       10.000007589386426       -2.534974380452644        1.092542696689121        0.000000000000000
Se          6.573038838123188       11.515027517229489        8.345738637499469        0.247523297204743       -0.219543768777018        0.263218603462340
Se          6.573038838123188       11.515027517229489       11.654277869047894        0.247523297204743       -0.219543768777018       -0.263218603462340
