# total energy = -38121.40936067542 eV 

 CRYSTAL
 PRIMVEC
       13.277745107833699        0.000000000000000        0.000000000000000
       -6.638872553916849       11.498859207011680        0.000000000000000
        0.000000000000000        0.000000000000000       20.000015178772852
 PRIMCOORD
48 1
Mo          1.634851577441262        0.943875066480574        9.902576823559652       -0.000206973896918       -0.150813008374352        2.231169867022466
Se          1.619900836449841        2.833287573129223        8.347098278598510        0.448287462994438        0.705398665279892       -0.512233655387478
Se          1.650026712325005        2.887544422963364       11.686088690777241       -0.494790769530686       -0.542796629425431       -0.237201341843657
Mo         -0.024865233263440        3.818589204346238        9.967353630842730       -0.010247907556971       -0.002119104171924        0.919100627955201
Se         -0.007671881123306        5.717844503443325        8.326669139975598       -0.314675142450920        0.285054992363277        0.079870069823756
Se         -0.041836847060273        5.752418423929613       11.665658224379818        0.382720189334232       -0.309780016955984        0.206322636196493
Mo         -1.684584699517163        6.693304669986414       10.062756884991538       -0.066286925756447       -0.046870717342082       -1.884924906085978
Se         -1.651265525943565        8.618614888308603        8.309846236923972       -0.803872988777060       -0.305562634557042        0.351968496239959
Se         -1.717678151423928        8.601077642570175       11.648828682455639        0.893810474635257        0.220317671174190        0.753101134866111
Mo         -3.344301510221865        9.568020135626588       10.099306533949871       -0.097573151436673       -0.106979279442700       -2.928959091987839
Se         -3.326004777463270       11.511158382305066        8.312408841729784        0.283569151182792       -0.436954292308409        0.428588175995592
Se         -3.362375176862648       11.457958440981507       11.651397926134006       -0.329905335938921        0.618828297625471        0.739414375295128
Mo          4.954287854399686        0.943875066480574       10.096147758388717        0.027502845688736       -0.177554292966601       -2.097211475838884
Se          4.981918841969088        2.882501535371409        8.308773395119260       -0.745022210904669       -0.496257584539280        0.298117230697472
Se          4.926882588497117        2.838331788495689       11.647758496199948        0.747064953278600        0.573689733256728        0.712892148790051
Mo          3.294569715920474        3.818589204346238       10.074366945313827       -0.058827123712743       -0.019039798743449       -2.101441713759373
Se          3.293538035125595        5.760516520670881        8.323228876218158       -0.057534115355475       -0.477676985025515        0.092673912174842
Se          3.295825790607675        5.709746406702057       11.662217960622378        0.053540419031464        0.593882158062144        0.232314958103373
Mo          1.634851577441262        6.693304669986414        9.982839464961996        0.006773317193056       -0.006996231936694        0.500468282067016
Se          1.606231397861326        8.614721853442985        8.344518412724058        0.763871233708350       -0.092534044100403       -0.436003497934741
Se          1.663697478688030        8.604970677435793       11.683508824902789       -0.638881625687741       -0.033856815768906       -0.209322086484004
Mo         -0.024865233263440        9.568020135626588        9.907413906102436       -0.023351026449688       -0.040838392411035        2.640213279388216
Se         -0.054126727932084       11.464358314123485        8.352672275994779       -0.147873721927684        0.601207491350459       -0.571206046493711
Se          0.004619327523015       11.504767803584665       11.691658704849978        0.119901392592026       -0.403300336669526       -0.369326278544105
Mo          8.273725459132622        0.943875066480574        9.929226585765587        0.017024567185630       -0.119503128534478        1.456583298993671
Se          8.240754162480849        2.848906184699568        8.351969883278576        0.912571565671551        0.295602690682740       -0.699592597528086
Se          8.306918494127697        2.871928466942041       11.690957639908286       -0.814539729226055       -0.348964417964691       -0.283543440139697
Mo          6.614007320653410        3.818589204346238        9.902563545814544       -0.085984412982276       -0.048039027140337        2.785620798062187
Se          6.599036663044327        5.708005694318421        8.347107573020086        0.450861395518720        0.718163426845474       -0.496510838313770
Se          6.629199716605792        5.762258560829029       11.686097985198819       -0.481463450342177       -0.543992192929367       -0.196179629695352
Mo          4.954287854399686        6.693304669986414        9.967295208764256       -0.017214057573243        0.004369591774066        0.925059162192564
Se          4.971463945471180        8.592546691338391        8.326682417720706       -0.325717778349970        0.298487726828477        0.040789798539585
Se          4.937336157220514        8.627145839540384       11.665668846575905        0.403154040834313       -0.325802624792185        0.152857550521299
Mo          3.294569715920474        9.568020135626588       10.062707757334637       -0.001197363276954       -0.013475671907170       -1.758987589016872
Se          3.327887561719561       11.493318403978179        8.309851548022015       -0.097744901204551       -0.274091546476960        0.234799159087252
Se          3.261476264013709       11.475807713729969       11.648837976877214        0.080551669576215        0.372124668474611        0.307278589573230
Mo         11.593157752767514        0.943875066480574       10.027696999034303        0.004652156137685       -0.020454934555420       -0.391746051012877
Se         11.623638144437058        2.858471472275252        8.314717841604036       -0.576331542934782        0.025863252470541        0.419002070687897
Se         11.562908393862847        2.862361851591846       11.653708253782767        0.755456780634513       -0.121843861897884        0.648486757167327
Mo          9.933443597611834        3.818589204346238       10.096137136192631       -0.062303256739243       -0.049436422332573       -2.877533663361405
Se          9.961083879602812        5.757207706590008        8.308769411795726       -0.246741424384211       -0.208426313742560        0.969874538749598
Se          9.906025053964157        5.713056548557440       11.647758496199948        0.340551764663870        0.348844861614297        1.281488781520008
Mo          8.273725459132622        6.693304669986414       10.074406778549150       -0.032214651446402       -0.012402235857936       -2.301988364124480
Se          8.272713694955405        8.635238625183611        8.323214270698539        0.302371379888039       -0.291082689306566        0.583947153899644
Se          8.274960289427650        8.584455233469679       11.662198044004716       -0.390531718447481        0.391225145279764        0.791260179476173
Mo          6.614007320653410        9.568020135626588        9.982900542589492       -0.004265976270391        0.001054152766912        0.430751246051209
Se          6.585395107720538       11.489458563475333        8.344506462753461       -0.050241949312753       -0.146736522491573       -0.460452643035034
Se          6.642841271929581       11.479667554232817       11.683498202706703       -0.018695784986832        0.120067743040853       -0.399649368549977
