# total energy = -9510.524433718288 eV 

 CRYSTAL
 PRIMVEC
        7.568240097473099        0.000000000000000        0.000000000000000
       -3.784120048736550        6.554285130414141        0.000000000000000
        0.000000000000000        0.000000000000000       20.000020487584848
 PRIMCOORD
12 1
Se          3.774670344150845        6.530729739934766        8.953433134617319       -0.094892775193976        0.065618181525535      -10.340514620433767
Se         -0.030128407004031        6.549750240947735        8.972367357693177        0.232299788587947       -0.252514324890425       -9.790622514445294
Se          5.646486083082389        3.257837498366436        8.974302556686101        0.009290942532960       -0.074381533454177      -10.074186523419467
Se          1.865378193904633        3.271192414842437        8.954479822222799       -0.078238704139351       -0.163381337570684       -9.693212371021845
Se          3.775427924984602        6.526785930019972       11.025643762145794       -0.060206006953950        0.145001798413926       10.153918524941799
Se         -0.016020450638331        6.542300822219792       11.067513536837044        0.135330846664016       -0.244127125522269        9.928800859132128
Se          5.638948872769316        3.260369831503051       11.056646300881082        0.084629955232010       -0.060958054964491       10.053876342036673
Se          1.873714610372000        3.261265911130591       11.050451696361302       -0.177605200831930       -0.182255814307029        9.669043990512154
Mo          1.885421920978781        1.064781753905568       10.009896635831755       -0.136097807079552        0.489352626805575        0.044682707574662
Mo          5.657088430634938        1.071200378332235       10.016655074238797       -0.011071432267317       -0.057691724049650        0.014819331019336
Mo         -0.030967724830840        4.346399419482275        9.988129620487411        0.062316883592084        0.387076668476319       -0.193950739369410
Mo          3.753872063538979        4.348536690485801       10.038292672677473        0.034243252746630       -0.051739360462630        0.227345013473029
