# total energy = -38122.78892907061 eV 

 CRYSTAL
 PRIMVEC
       53.110927513609894        0.000000000000000        0.000000000000000
       -1.659716484800309        2.874735173529163        0.000000000000000
        0.000000000000000        0.000000000000000       19.999981973800079
 PRIMCOORD
48 1
Mo          1.634849948538437        0.943876781586372       10.061817417618633        0.219107452375689        0.134096459485005       -1.119117373722112
Se          1.642933431706008        2.877677518913416        8.407077426726350        0.057773999387555       -0.072745539782016       -0.077886977069806
Se          1.626994842359174        2.843150104936819       11.746060528744726       -0.055546651724199        0.069518289652679       -0.060251258389798
Mo          4.954282918139056        0.943876781586372       10.078467693394149        0.009640869829488        0.004385532620785        0.142172555231706
Se          4.958600836545912        2.871675984104379        8.418506898327278        0.011634761221538       -0.061631427183160       -0.056953817112811
Se          4.950188065627756        2.849151639745857       11.757490000345655       -0.012975335008533        0.060843640822717       -0.052832594015047
Mo          8.273715887739673        0.943876781586372       10.090178652910899       -0.000914798913335       -0.001148512295072        0.095735068965782
Se          8.274013308933750        2.864973385052161        8.424407522374040        0.018790401625423       -0.023154851190870       -0.015080555217185
Se          8.273646843533905        2.855859549890826       11.763390624392418       -0.018918956840900        0.023623563506499       -0.013259956255599
Mo         11.593148857340292        0.943876781586372       10.096217365369197        0.000260195756126        0.000330644014207       -0.009050287169586
Se         11.589409848043335        2.857978675898619        8.424407522374040        0.027362720503866        0.017975104448867        0.036695572037071
Se         11.597116243625559        2.862848947951617       11.763390624392418       -0.028715892701977       -0.017511277231426        0.038860184755274
Mo         14.912587138033661        0.943876781586372       10.096217365369197        0.003243190976056       -0.000401863603581       -0.112993863754011
Se         14.905050697419481        2.851137988434866        8.418506898327278        0.033244892943235        0.057011409849345        0.085558895219047
Se         14.920346644543400        2.869689635415370       11.757490000345655       -0.035646047257916       -0.057458267778343        0.089790675802122
Mo         18.232020107634280        0.943876781586372       10.090178652910899        0.000820439385175        0.000103872614105       -0.209325428919607
Se         18.221169545143248        2.844881521173762        8.407077426726350        0.036898689277525        0.092122667410876        0.128374209733689
Se         18.243099047113617        2.875946102676473       11.746060528744726       -0.040152164670819       -0.093901614482648        0.135645035610642
Mo         21.551447766142150        0.943876781586372       10.078467693394149        0.001657848058792        0.003464305946676       -0.294332822264257
Se         21.537978834924697        2.839602294978910        8.390836105092685        0.038246205046155        0.121390833318543        0.162740618376746
Se         21.565155696533409        2.881225328871326       11.729819207111065       -0.042631480556510       -0.124614741012277        0.173318912837493
Mo         24.870886046835516        0.943876781586372       10.061817417618633        0.004642643051739        0.004696379131809       -0.360288332675205
Se         24.855637899546359        2.835629597600892        8.370807974327304        0.037262500537325        0.142890407554930        0.187000015978995
Se         24.886357260020233        2.885198026249344       11.709791076345683       -0.041963507656891       -0.147479571637031        0.199817999403784
Mo         28.190319016436138        0.943876781586372       10.041300666320124        0.003676164941783        0.004463951302226       -0.405096253029741
Se         28.174268894141523        2.833213050399022        8.348241141226771        0.034135266365629        0.155419655965757        0.199704356593302
Se         28.206597515719057        2.887614573451213       11.687229554337900       -0.038523627201155       -0.160975555268246        0.213427111624619
Mo         31.509757297129504        0.943876781586372       10.018170857387947        0.001748608040919        0.005975760636237       -0.420858150888955
Se         31.493903685266691        2.832506675063092        8.324564289741204        0.029050393372649        0.158546633027022        0.199764263323714
Se         31.525823352702371        2.888320948787144       11.663547391759582       -0.032774637965020       -0.164287651839797        0.213305498390777
Mo         34.829184955637373        0.943876781586372        9.993909785699730        0.005840006328693        0.005787041579916       -0.409592086025406
Se         34.814558206200125        2.833552960335110        8.301259214748232        0.021971628987619        0.151877445558502        0.187471299398934
Se         34.844045393155682        2.887274663515126       11.640247627859361       -0.024854094029046       -0.156999085343109        0.199974836766666
Mo         38.148612614145236        0.943876781586372        9.970031112689611        0.003900365237575        0.003250390068123       -0.372221856217511
Se         38.136126235086792        2.836288173102061        8.279791777847231        0.013593428484547        0.135796473654474        0.163755690358153
Se         38.161332681284748        2.884539450748175       11.618780190958359       -0.015038646216940       -0.139716379284801        0.174088187246908
Mo         41.468056205931362        0.943876781586372        9.948032566513474        0.000826610035518        0.003394371909457       -0.316173324932090
Se         41.458485616793411        2.840537047303149        8.261516307689798        0.003791350414850        0.111012827883509        0.129938983816476
Se         41.477844549872117        2.880290576547086       11.600499409708176       -0.004250035423672       -0.113332221081147        0.137469748339123
Mo         44.787483864439231        0.943876781586372        9.929300342379424        0.002388813013995        0.002387527461840       -0.239799185638018
Se         44.781466396351938        2.846039339393559        8.247569378124723       -0.006468898442807        0.079366133379085        0.087917369202190
Se         44.793735020607578        2.874788284456677       11.586547169050350        0.006474040651426       -0.079951830940799        0.092602178364606
Mo         48.106922145132593        0.943876781586372        9.915008191785510        0.002162298724324       -0.000346841971357       -0.134210359405918
Se         48.104824263495807        2.852439206158949        8.238832630548735       -0.003935332256184        0.049334349491485        0.046630061978709
Se         48.109243092664940        2.868388417691286       11.577821043659865        0.006577656155100       -0.047980148851649        0.049428194798783
Mo         51.426355114733212        0.943876781586372        9.906059000499468       -0.000658974034536       -0.000555358530861       -0.082422919292699
Se         51.428314907958466        2.859343626735719        8.235863729700723        0.406247593539554        0.254030762212193        0.505814893478708
Se         51.424613076310770        2.861483997114517       11.574846831719102       -0.639001696258997       -0.388903952309110        0.684744984361345
